LAMMPS (2 Aug 2023 - Update 2)
  using 1 OpenMP thread(s) per MPI task
units           real
atom_style      full
dimension 3
boundary        p p p

read_data       ../model_solvation/sol_N10_3.data
Reading data file ...
  orthogonal box = (0.159999 0.000499 0.000499) to (22.44 35.0955 35.0955)
  2 by 4 by 4 MPI processor grid
  reading atoms ...
  1196 atoms
  scanning bonds ...
  6 = max bonds/atom
  scanning angles ...
  6 = max angles/atom
  reading bonds ...
  1345 bonds
  reading angles ...
  1110 angles
Finding 1-2 1-3 1-4 neighbors ...
  special bond factors lj:    0        0        0       
  special bond factors coul:  0        0        0       
     6 = max # of 1-2 neighbors
    15 = max # of 1-3 neighbors
    72 = max # of 1-4 neighbors
    30 = max # of special neighbors
  special bonds CPU = 0.002 seconds
  read_data CPU = 0.039 seconds

# Define groups
group mos2  type 6 7 14 15 16 17     # MoS2 backbone
420 atoms in group mos2
group water type 4 5 9     # 4 and 5 are H1 and H2 atoms, 9 is O atom
720 atoms in group water
group hcro  type 2 3 10 11 12 13     # HCRO4- ions
30 atoms in group hcro
group slvn  type 1 2 3 8 10 11 12  13 # solvent
56 atoms in group slvn
group sol   type 1 2 3 4 5 8 9 10 11 12  13 # solvent and solution
776 atoms in group sol
group dmp   type 1 2 3 6 7 8 10 11 12 13 14 15 16 17 # all without water
476 atoms in group dmp

# Pair style and kspace
pair_style      lj/cut/coul/long 10.0
special_bonds lj 0.0 0.0 0.5 coul 0.0 0.0 0.83333333
Finding 1-2 1-3 1-4 neighbors ...
  special bond factors lj:    0        0        0.5     
  special bond factors coul:  0        0        0.83333333
     6 = max # of 1-2 neighbors
    15 = max # of 1-3 neighbors
    72 = max # of 1-4 neighbors
    30 = max # of special neighbors
  special bonds CPU = 0.001 seconds
pair_modify     mix arithmetic
kspace_style    pppm 1.0e-4
#kspace_style ewald 1e-8

# Pair Coeff
pair_coeff 1 1     0.070   3.5600000   # Cl-Cl
pair_coeff 2 2     0.050   2.5000000   # CR-CR
pair_coeff 3 3     0.001   1.0000000   # H-H
pair_coeff 4 4     0.0     0.0         # H1-H1
pair_coeff 5 5     0.0     0.0         # H2-H2
pair_coeff 6 6     0.0134  4.2000000   # Mo1-Mo1
pair_coeff 7 7     0.0134  4.2000000   # Mo2-Mo2
pair_coeff 8 8     0.0469  2.4300000   # Na-Na
pair_coeff 9 9     0.1521  3.1507      # OW-OW
pair_coeff 10 10   0.1000  3.0000000   # O1-O1
pair_coeff 11 11   0.1000  3.0000000   # O2-O2
pair_coeff 12 12   0.1000  3.0000000   # O3-O3
pair_coeff 13 13   0.1000  3.0000000   # O4-O4
pair_coeff 14 14   0.4610  3.1300000   # S1-S1
pair_coeff 15 15   0.4610  3.1300000   # S2-S2
pair_coeff 16 16   0.4610  3.1300000   # S3-S3
pair_coeff 17 17   0.4610  3.1300000   # S4-S4

bond_style harmonic
bond_coeff 1 650 2.4127                # Mo-S bond
bond_coeff 2 650 1.600                 # CR-O bond in HCRO4
bond_coeff 3 450 0.600                 # O-H bond  in HCRO4
bond_coeff 4 450 0.957                 # O-H bond  in water

angle_style     harmonic
angle_coeff 1 100 82.38                # Mo-S-Mo angle in MoS2
angle_coeff 2 55 104.52                # O-CR-O angle in HCRO4
angle_coeff 3 80 109.50                # H-O-H angle in water

## Minimize the system first
velocity all create 300.0 12345 dist gaussian mom yes rot yes
min_style cg
minimize 1.0e-4 1.0e-6 1000 10000
PPPM initialization ...
WARNING: System is not charge neutral, net charge = 0.00012 (src/src/kspace.cpp:327)
  using 12-bit tables for long-range coulomb (src/src/kspace.cpp:342)
  G vector (1/distance) = 0.2571481
  grid = 12 16 16
  stencil order = 5
  estimated absolute RMS force accuracy = 0.028448941
  estimated relative force accuracy = 8.5673142e-05
  using double precision FFTW3
  3d grid and FFT values/proc = 1053 96
Generated 136 of 136 mixed pair_coeff terms from arithmetic mixing rule
Neighbor list info ...
  update: every = 1 steps, delay = 0 steps, check = yes
  max neighbors/atom: 2000, page size: 100000
  master list distance cutoff = 12
  ghost atom cutoff = 12
  binsize = 6, bins = 4 6 6
  1 neighbor lists, perpetual/occasional/extra = 1 0 0
  (1) pair lj/cut/coul/long, perpetual
      attributes: half, newton on
      pair build: half/bin/newton
      stencil: half/bin/3d
      bin: standard
WARNING: Inconsistent image flags (src/src/domain.cpp:815)
Per MPI rank memory allocation (min/avg/max) = 11.61 | 11.72 | 11.96 Mbytes
   Step          Temp          E_pair         E_mol          TotEng         Press     
         0   300            32158382       649.05339      32160100       3.2167775e+08
       216   300           -23133.621      4243.897      -17821.104      285.66309    
Loop time of 0.733187 on 32 procs for 216 steps with 1196 atoms

99.7% CPU use with 32 MPI tasks x 1 OpenMP threads

Minimization stats:
  Stopping criterion = energy tolerance
  Energy initial, next-to-last, final = 
      32159031.1282078  -18887.8497283176  -18889.7240358927
  Force two-norm initial, final = 5.9243767e+08 67.011495
  Force max component initial, final = 3.3251818e+08 19.642961
  Final line search alpha, max atom move = 0.002303931 0.045256027
  Iterations, force evaluations = 216 362

MPI task timing breakdown:
Section |  min time  |  avg time  |  max time  |%varavg| %total
---------------------------------------------------------------
Pair    | 3.9594e-05 | 0.12551    | 0.5985     |  54.6 | 17.12
Bond    | 3.8075e-05 | 0.0014464  | 0.0048679  |   4.3 |  0.20
Kspace  | 0.072294   | 0.54771    | 0.67878    |  26.4 | 74.70
Neigh   | 0.014848   | 0.015014   | 0.01547    |   0.1 |  2.05
Comm    | 0.017931   | 0.031119   | 0.03798    |   2.7 |  4.24
Output  | 0          | 0          | 0          |   0.0 |  0.00
Modify  | 0          | 0          | 0          |   0.0 |  0.00
Other   |            | 0.01238    |            |       |  1.69

Nlocal:         37.375 ave         131 max           0 min
Histogram: 18 6 0 0 0 0 0 0 1 7
Nghost:        1631.06 ave        1780 max        1449 min
Histogram: 7 1 0 0 0 6 10 0 0 8
Neighs:        12702.5 ave       62645 max           0 min
Histogram: 24 0 0 0 2 0 1 3 1 1

Total # of neighbors = 406481
Ave neighs/atom = 339.86706
Ave special neighs/atom = 10.69398
Neighbor list builds = 11
Dangerous builds = 0

# *************** Setting ******************************
# Neighbor settings
neigh_modify delay 0 every 1 check yes
#neigh_modify    delay 5 every 1

# Define SHAKE constraints for water (O-H bonds and H-O-H angle)
fix spce_model water shake 0.0001 20 0 b 4 a 2
Finding SHAKE clusters ...
       0 = # of size 2 clusters
     240 = # of size 3 clusters
       0 = # of size 4 clusters
       0 = # of frozen angles
  find clusters CPU = 0.001 seconds

# Fix MoS2 as rigid (zero force and velocity)
fix mos_hold mos2 setforce 0.0 0.0 0.0
velocity mos2 set 0.0 0.0 0.0

### Setup for HCrO- transport in radial and axial directions
# Define acceleration/gravity field along x direction (unit kcal/g/A = 4.18*10^7 nm/ns^2)
fix 1 hcro gravity 0.3 vector 1 0 0
# Define force along radial direction (0.001 kcal/mol·e·Å)
# Tube center coordinates: Y=17.5, Z=17.5 (from box bounds)
variable ycenter equal 17.548
variable zcenter equal 17.548
variable r atom sqrt((y-${ycenter})^2+(z-${zcenter})^2)
variable r atom sqrt((y-17.548)^2+(z-${zcenter})^2)
variable r atom sqrt((y-17.548)^2+(z-17.548)^2)
variable fy atom 1*(y-${ycenter})/v_r  # positive = outward from tube center
variable fy atom 1*(y-17.548)/v_r  
variable fz atom 1*(z-${zcenter})/v_r  # positive = outward from tube center
variable fz atom 1*(z-17.548)/v_r  
fix radial_out hcro addforce 0 v_fy v_fz

# Set timestep
reset_timestep  0
timestep        1  # fs
fix fix_nvt sol nvt temp 300.0 300.0 200.0

# Thermostat output
thermo          1000
thermo_style    custom step temp etotal press
# dump every 1000fs = 1ps
dump d1 dmp custom 1000 dump.lammpstrj id type mol xu yu zu q

# Run for 5 ns (5,000,000 steps)
run 5000000
PPPM initialization ...
  using 12-bit tables for long-range coulomb (src/src/kspace.cpp:342)
  G vector (1/distance) = 0.2571481
  grid = 12 16 16
  stencil order = 5
  estimated absolute RMS force accuracy = 0.028448941
  estimated relative force accuracy = 8.5673142e-05
  using double precision FFTW3
  3d grid and FFT values/proc = 1053 96
Generated 136 of 136 mixed pair_coeff terms from arithmetic mixing rule
WARNING: Inconsistent image flags (src/src/domain.cpp:815)
Per MPI rank memory allocation (min/avg/max) = 11.87 | 11.94 | 12.1 Mbytes
   Step          Temp          TotEng         Press     
         0   227.46105     -18402.84       337.42772    
      1000   196.76972     -17735.574      2116.4469    
      2000   174.88087     -17857.571      2395.7935    
      3000   173.20078     -17867.91       2125.2854    
      4000   179.24645     -17870.227      1869.0996    
      5000   180.36144     -17942.9        1701.3006    
      6000   183.17034     -17900.681      1564.437     
      7000   184.63104     -17937.661      1169.1451    
      8000   185.31184     -17942.917      844.79427    
      9000   165.80991     -18007.14       1449.8421    
     10000   173.44944     -17994.374      1376.2893    
     11000   180.04969     -17973.78       1260.6808    
     12000   184.24985     -17958.682      1206.8233    
     13000   172.70159     -18003.126      1087.8787    
     14000   179.75217     -17971.247      1117.4667    
     15000   178.81514     -17917.412      1555.8881    
     16000   174.30095     -17928.614      1173.5542    
     17000   184.08117     -17984.513      1019.5674    
     18000   188.81448     -17958.502      1243.1709    
     19000   175.49547     -17939.812      1515.914     
     20000   182.42822     -17960.444      1123.4453    
     21000   185.81664     -17985.472      968.26214    
     22000   173.00416     -17995.023      1211.279     
     23000   169.0904      -18014.831      849.78054    
     24000   169.06531     -17986.83       1240.8978    
     25000   169.56805     -17966.232      1180.2235    
     26000   169.0016      -18030.759      1222.9947    
     27000   181.84544     -17990.189      1027.9043    
     28000   180.01011     -17971.496      1106.553     
     29000   174.91524     -18024.023      1033.0879    
     30000   171.76411     -17991.089      1327.3486    
     31000   176.07079     -17974.458      1587.0296    
     32000   183.9212      -17934.589      1458.7386    
     33000   177.89684     -17930.078      1307.1471    
     34000   182.82797     -17962.368      1337.3376    
     35000   174.40755     -17970.814      1434.6533    
     36000   176.61673     -17935.622      1551.902     
     37000   178.06621     -17958.477      1677.5335    
     38000   172.27164     -17999.261      1063.6832    
     39000   176.83896     -17995.85       1327.5206    
     40000   180.11294     -17967.15       1481.6023    
     41000   176.03448     -17986.164      921.91347    
     42000   177.38112     -18021.976      1034.5571    
     43000   170.2284      -18025.232      1033.3547    
     44000   187.46974     -17995.771      799.05575    
     45000   174.73051     -17986.629      1114.4902    
     46000   176.88866     -18026.301      919.53794    
     47000   170.01469     -18029.327      407.29108    
     48000   170.86006     -18011.877      1169.4661    
     49000   173.94801     -18000.585      1307.6736    
     50000   186.73998     -17960.263      950.99553    
     51000   185.86509     -17983.444      558.4629     
     52000   178.25441     -17998.314      921.52649    
     53000   180.22083     -17992.22       764.1648     
     54000   183.30539     -17957.772      1246.7046    
     55000   196.82459     -17934.526      894.43712    
     56000   175.83754     -17989.855      1084.6739    
     57000   171.35745     -17998.898      1414.013     
     58000   175.65904     -18021.032      778.65222    
     59000   177.56457     -18003.531      761.87852    
     60000   176.54934     -17987.295      1334.4361    
     61000   178.4546      -17949.5        994.23637    
     62000   183.74631     -17975.027      731.31466    
     63000   172.95692     -17995.505      800.83817    
     64000   180.74533     -18005.287      681.60979    
     65000   173.34996     -17951.459      611.98471    
     66000   176.41774     -17972.454      726.66131    
     67000   182.63203     -17980.075      1018.8326    
     68000   174.30568     -18012.439      744.72821    
     69000   172.51595     -18043.964      493.87292    
     70000   184.76241     -18018.971      515.1774     
     71000   175.80363     -18009.336      1031.3817    
     72000   178.04144     -17985.064      642.78766    
     73000   180.41282     -17963.734      855.39632    
     74000   171.30633     -18003.174      796.74742    
     75000   177.57179     -18016.997      639.73475    
     76000   176.64364     -18006.87       1051.2519    
     77000   181.43532     -17957.274      1122.0705    
     78000   179.45261     -17996.776      667.71783    
     79000   168.44778     -18051.317      901.09482    
     80000   177.66994     -18014.945      751.54558    
     81000   179.65284     -17995.148      695.10682    
     82000   175.41269     -17992.983      1021.7633    
     83000   172.32892     -18040.621      686.70879    
     84000   183.33463     -18022.056      387.77933    
     85000   190.05897     -17985.379      393.60902    
     86000   189.30054     -17967.878      785.12166    
     87000   185.29546     -17993.682      470.9404     
     88000   176.99325     -18019.94       676.08762    
     89000   176.93881     -17963.947      1069.4081    
     90000   181.71312     -17935.43       863.57942    
     91000   182.42755     -17926.879      1151.364     
     92000   175.45997     -17966.674      1316.4126    
     93000   172.66661     -17994.281      857.19517    
     94000   172.55433     -18004.69       1166.9956    
     95000   182.55497     -17964.415      1055.6887    
     96000   187.53746     -17936.786      1013.8983    
     97000   174.96198     -17978.096      1005.4526    
     98000   174.5665      -18023.523      579.73721    
     99000   170.81271     -18014.981      269.98968    
    100000   169.75305     -18028.777      310.88531    
    101000   178.15379     -17984.918      653.44896    
    102000   185.81812     -17964.423      875.03391    
    103000   180.69717     -17958.227      330.47512    
    104000   172.44395     -18005.203      254.01308    
    105000   172.85724     -18008.32       964.90954    
    106000   172.87943     -18038.292      684.0674     
    107000   173.43691     -18004.558      473.75038    
    108000   176.78925     -17993.209      711.93334    
    109000   179.47559     -17971.673      561.06461    
    110000   183.69001     -17991.743      662.53677    
    111000   180.05672     -18007.826      839.33469    
    112000   180.62562     -17968.207      911.86089    
    113000   179.59168     -17979.155      1026.2869    
    114000   178.39289     -18015.106      670.24313    
    115000   179.13635     -18022.793      600.5813     
    116000   169.83258     -18040.679      432.08136    
    117000   175.55632     -18022.563      397.93554    
    118000   175.25155     -18018.256      763.90064    
    119000   180.22044     -17972.191      977.84867    
    120000   177.17579     -18031.37       658.70063    
    121000   172.48125     -18041.93       1184.8663    
    122000   179.24906     -18009.898      656.25993    
    123000   185.11144     -17984.043      487.68549    
    124000   172.28369     -17988.982      865.34656    
    125000   171.81085     -18019.729      758.41776    
    126000   169.85243     -18043.927      627.47261    
    127000   178.34851     -18028.606      672.4115     
    128000   175.47342     -18017.173      1285.1743    
    129000   179.7454      -18040.535      525.51678    
    130000   176.75198     -18033.384      641.43991    
    131000   180.12016     -18005.427      600.95163    
    132000   176.46933     -18035.923      472.94779    
    133000   184.91936     -18001.819      722.58797    
    134000   187.89044     -17994.309      473.78789    
    135000   181.31399     -18014.878      627.65639    
    136000   183.00591     -17990.017      1066.1047    
    137000   189.99945     -17985.149      337.97469    
    138000   172.77263     -18014.15       1312.6151    
    139000   175.53002     -18011.418      767.97103    
    140000   175.82507     -18032.889      718.93277    
    141000   182.49898     -17994.515      662.71525    
    142000   189.47556     -17964.537      1010.0816    
    143000   180.13102     -17938.65       1309.9991    
    144000   175.99288     -17998.233      546.99124    
    145000   173.76351     -18032.949      726.07425    
    146000   176.02047     -18050.627      739.98012    
    147000   174.05844     -18013.808      1005.7836    
    148000   185.23585     -18004.133      899.48109    
    149000   182.47823     -17994.889      1182.1893    
    150000   165.04722     -18044.666      653.51626    
    151000   177.51628     -18027.687      421.65043    
    152000   186.49573     -18000.704      622.61565    
    153000   176.59647     -18024.47       1115.9781    
    154000   179.0577      -17999.323      705.62815    
    155000   175.84606     -17993.233      1291.7616    
    156000   174.29937     -18020.365      1017.9682    
    157000   170.67322     -18013.264      901.69815    
    158000   180.61352     -17982.627      1338.1877    
    159000   189.36048     -17965.176      253.37581    
    160000   176.9872      -18003.354      1104.1874    
    161000   177.57356     -18031.214      753.44192    
    162000   175.83794     -18005.818      946.62016    
    163000   186.99046     -17983.18       889.09894    
    164000   177.28318     -18018.818      717.77426    
    165000   172.32288     -18022.286      1285.4549    
    166000   181.83245     -17999.203      528.96406    
    167000   186.02171     -17995.635      979.94018    
    168000   186.45662     -18006.269      648.76031    
    169000   171.83025     -18045.013      698.354      
    170000   175.59168     -18013.171      929.22314    
    171000   175.28717     -17996.277      994.20204    
    172000   174.77095     -18022.623      790.38676    
    173000   170.78838     -18047.316      653.79534    
    174000   181.57805     -18009.866      184.98523    
    175000   179.29542     -17993.608      1387.578     
    176000   176.21605     -18057.247      907.14557    
    177000   169.23084     -18037.705      531.64921    
    178000   180.9771      -17975.983      840.24091    
    179000   174.93677     -18008.275      983.99081    
    180000   179.52584     -18023.777      596.30406    
    181000   169.35623     -18059.954      737.69097    
    182000   177.88005     -17999.783      753.75645    
    183000   184.7268      -17987.803      805.88206    
    184000   173.06103     -18095.663      471.11441    
    185000   169.27124     -18005.346      882.16373    
    186000   179.33787     -17967.291      1056.6563    
    187000   176.11873     -17983.986      1194.5767    
    188000   172.97979     -17997.316      1129.6033    
    189000   174.3311      -18026.245      1351.7973    
    190000   173.08866     -17963.173      1194.975     
    191000   181.15042     -17921.421      1572.6703    
    192000   181.13089     -17920.457      1383.1669    
    193000   180.5855      -17962.13       1598.6695    
    194000   184.41026     -17923.185      1925.6959    
    195000   176.91186     -17961.338      1375.89      
    196000   179.98181     -17987.521      760.40832    
    197000   185.30457     -17964.241      1443.0651    
    198000   176.24205     -17964.31       1389.1964    
    199000   175.2765      -17981.918      1275.0331    
    200000   173.84408     -17990.784      1162.3854    
    201000   182.45059     -17953.058      1426.386     
    202000   178.44994     -17932.437      1876.2336    
    203000   180.53967     -17943.343      1436.1233    
    204000   176.11708     -17981.717      1310.8633    
    205000   176.39107     -17965.123      983.65675    
    206000   183.28669     -17939.874      1494.6765    
    207000   180.65111     -17946.881      993.893      
    208000   178.74611     -17965.284      1048.0973    
    209000   174.42809     -17971.891      1577.7325    
    210000   172.43855     -17970.704      762.81624    
    211000   185.96991     -17919.75       1440.7001    
    212000   183.04191     -17948.291      1330.5998    
    213000   179.67585     -17981.067      1347.0461    
    214000   165.48557     -17993.817      1143.5686    
    215000   176.59174     -17991.594      939.40865    
    216000   178.34806     -17973.555      1193.486     
    217000   172.98725     -17952.969      1081.5618    
    218000   181.24367     -17949.769      1536.6421    
    219000   178.04871     -17973.455      1403.6862    
    220000   168.64753     -18000.721      1150.6601    
    221000   178.30241     -17998.143      791.90305    
    222000   176.65858     -17963.471      1209.1201    
    223000   175.11383     -17938.189      1689.8715    
    224000   166.1313      -17981.834      938.05647    
    225000   177.73598     -17975.304      1388.7461    
    226000   177.12127     -17954.152      1572.1011    
    227000   174.44991     -17998.23       1396.367     
    228000   172.02505     -18004.035      1728.7361    
    229000   170.10509     -17984.154      1112.3922    
    230000   185.11738     -17947.038      1580.2185    
    231000   183.23036     -17968.329      1576.1264    
    232000   178.6089      -17948.732      1694.7409    
    233000   175.10543     -17923.941      2001.4147    
    234000   191.98824     -17887.01       2140.6519    
    235000   180.00382     -17929.142      1762.2825    
    236000   191.4885      -17901.283      1477.286     
    237000   170.88898     -17998.635      793.57356    
    238000   186.11424     -17970.072      1110.7335    
    239000   181.62692     -17959.861      1291.8255    
    240000   177.27332     -17998.827      1039.1591    
    241000   175.62746     -18013.136      829.81768    
    242000   192.3081      -17910.831      1390.1917    
    243000   180.53602     -17945.774      1700.1795    
    244000   182.2532      -17940.166      1113.4663    
    245000   192.0418      -17916.188      683.16317    
    246000   183.84749     -17909.708      1390.8798    
    247000   183.29381     -17951.11       846.77594    
    248000   177.22199     -17978.419      797.05632    
    249000   179.69219     -17945.746      963.40889    
    250000   170.22439     -17927.519      1627.6622    
    251000   182.08246     -17916.152      948.11505    
    252000   180.53693     -17919.708      873.35794    
    253000   186.60168     -17940.465      903.69542    
    254000   176.60615     -17964.511      1219.0973    
    255000   177.44825     -17932.592      1088.7273    
    256000   181.18666     -17942.34       765.31748    
    257000   171.4758      -18052.722      561.48845    
    258000   176.29898     -17946.999      736.94545    
    259000   174.985       -17976.13       314.64947    
    260000   168.98161     -18011.335      1447.2465    
    261000   168.45324     -18016.497      643.67664    
    262000   192.53726     -17914.847      1229.1662    
    263000   186.12806     -17968.087      767.55573    
    264000   175.87023     -17984.142      589.78186    
    265000   172.84959     -18005.261      567.54367    
    266000   175.87395     -18015.582      933.3844     
    267000   174.3771      -17993.835      492.47859    
    268000   176.73607     -17975.358      1160.7987    
    269000   174.65759     -17981.253      1060.8417    
    270000   175.25422     -18014.399      892.23549    
    271000   173.62374     -18033.946      497.65214    
    272000   175.08158     -18010.52       482.00129    
    273000   167.87846     -17987.627      1031.287     
    274000   179.48372     -17958.109      903.5644     
    275000   178.86243     -18016.089      672.23191    
    276000   183.36741     -17986.934      538.93814    
    277000   177.74927     -17951.795      961.8387     
    278000   177.49269     -17984.316      1124.3763    
    279000   187.14271     -17994.025      746.12087    
    280000   181.54369     -17970.391      833.40431    
    281000   172.97915     -17951.859      1296.1167    
    282000   191.49457     -17918.416      1198.0958    
    283000   172.43739     -17983.694      1167.1807    
    284000   177.43717     -18002.143      988.10999    
    285000   177.34661     -17977.385      847.21409    
    286000   190.46982     -17904.919      998.51725    
    287000   178.51655     -18023.435      751.82651    
    288000   174.82474     -18006.789      778.53784    
    289000   179.26615     -17988.863      432.53313    
    290000   169.35343     -18029.402      944.24466    
    291000   177.49416     -18023.699      617.47627    
    292000   175.18841     -18011.909      534.37405    
    293000   191.05422     -17970.104      543.99247    
    294000   187.35374     -17960.36       640.01753    
    295000   174.77405     -18006.185      669.92864    
    296000   186.58345     -18004.957      873.2228     
    297000   187.63595     -17976.779      805.72207    
    298000   182.65495     -17974.326      837.99718    
    299000   168.00155     -18028.274      1173.5162    
    300000   169.42454     -18028.811      692.34818    
    301000   192.57989     -17928.003      652.32282    
    302000   174.62085     -18009.42       876.40501    
    303000   172.13313     -18014.162      704.59751    
    304000   182.25176     -17990.286      805.31674    
    305000   182.38175     -17964.332      622.62463    
    306000   169.12516     -18027.538      1067.8638    
    307000   177.08175     -18003.393      927.61297    
    308000   176.4887      -17983.679      279.91027    
    309000   177.93177     -17980.704      890.11684    
    310000   170.00582     -18044.058      1019.6663    
    311000   178.18989     -17993.991      747.94863    
    312000   181.72356     -17973.131      535.30363    
    313000   173.50755     -17991.273      689.1103     
    314000   168.49962     -18047.385      142.40362    
    315000   169.68904     -18028.92       616.20202    
    316000   178.02606     -18021.128      910.21686    
    317000   179.70313     -17985.838      1182.0332    
    318000   189.84049     -17954.187      313.28596    
    319000   175.67977     -17978.086      799.90171    
    320000   177.75314     -18006.626      802.29275    
    321000   181.60305     -18033.241      430.74404    
    322000   178.55854     -18044.053      717.85974    
    323000   175.41404     -18036.209      682.30069    
    324000   179.71121     -17994.502      1362.2236    
    325000   178.75562     -18012.92       1311.7804    
    326000   174.55379     -18055.131      840.37321    
    327000   169.03045     -18047.049      765.93802    
    328000   177.64187     -18003.008      958.7416     
    329000   178.34252     -17980.058      1359.7368    
    330000   174.44251     -18010.628      894.6182     
    331000   177.43809     -18019.357      712.32928    
    332000   187.56785     -17985.613      773.43393    
    333000   190.70862     -17958.114      739.16269    
    334000   186.72731     -17959.206      614.95092    
    335000   180.16788     -18016.044      383.99653    
    336000   177.94056     -18031.7        396.10281    
    337000   185.46691     -18016.054      166.17226    
    338000   184.25999     -17984.536      739.57787    
    339000   178.89561     -17992.073      589.97973    
    340000   188.18072     -18044.825      269.48206    
    341000   171.81363     -18049.647      662.96633    
    342000   187.36131     -18004.943      152.00582    
    343000   187.37265     -17983.428     -50.253167    
    344000   187.9869      -18021.687      30.836545    
    345000   179.27552     -18016.628      635.53384    
    346000   170.51743     -18074.949      267.50398    
    347000   170.03272     -18060.262      293.58161    
    348000   180.33137     -18059.566      270.34438    
    349000   172.17515     -18020.269      690.88911    
    350000   178.04997     -17969.735      1047.9066    
    351000   183.03701     -18017.959      293.99109    
    352000   169.43111     -18043.313      187.94546    
    353000   177.91325     -18051.529      583.96373    
    354000   168.90441     -18059.862     -39.805642    
    355000   171.35605     -18055.65       270.65583    
    356000   190.0631      -18020.641      129.16695    
    357000   186.82038     -18008.38       161.23294    
    358000   183.24227     -18027.297      407.13545    
    359000   177.19937     -18030.525      57.37295     
    360000   180.45812     -18059.05       589.57384    
    361000   179.4959      -18056.923      194.32274    
    362000   172.54869     -18058.784      332.9697     
    363000   185.04443     -18014          368.49738    
    364000   175.47666     -18058.51       78.729938    
    365000   171.69015     -18040.84       461.40181    
    366000   173.51884     -18045.485      292.85005    
    367000   176.1706      -18029.215      123.68141    
    368000   165.10033     -18095.381      128.03526    
    369000   175.72598     -18065.307     -142.81366    
    370000   186.50746     -18042.149      333.76755    
    371000   182.99998     -18002.08       395.80237    
    372000   176.30305     -18027.002      239.39886    
    373000   179.92193     -18029.796      461.89333    
    374000   178.85089     -18050.811      441.17958    
    375000   173.07844     -18069.659      149.64959    
    376000   176.80278     -18085.248     -231.66434    
    377000   181.83648     -18067.13      -98.133535    
    378000   187.42216     -18032.786     -171.73446    
    379000   176.77132     -18054.631      119.05278    
    380000   176.96517     -18066.768     -66.972981    
    381000   175.7646      -18072.636      67.118857    
    382000   179.43134     -18049.63      -45.240268    
    383000   178.06123     -18035.655      46.025682    
    384000   166.93566     -18109.256      331.73195    
    385000   183.04141     -18034.066      186.01266    
    386000   176.08648     -18041.8        166.89414    
    387000   170.23105     -18081.743      218.89463    
    388000   172.74265     -18078.214      362.64325    
    389000   189.9781      -18025.923      348.41289    
    390000   180.14487     -18047.446      255.18407    
    391000   181.60485     -18080.625     -12.428758    
    392000   184.34234     -18053.52       21.307732    
    393000   182.81925     -18058.083     -237.82503    
    394000   174.99751     -18096.744     -555.62907    
    395000   179.54837     -18049.748      268.55134    
    396000   175.25843     -18042.626      544.53773    
    397000   183.68432     -18061.403      158.47881    
    398000   177.83085     -18041.112      1061.3728    
    399000   170.36956     -18064.611      394.80768    
    400000   185.3003      -18024.724      520.13606    
    401000   179.81216     -17998.186      660.81676    
    402000   184.64858     -18023.628      353.42613    
    403000   179.69299     -18059.201      623.64501    
    404000   174.40388     -18035.264      114.41104    
    405000   178.31795     -18027.205      509.41798    
    406000   175.66419     -18073.317      255.10579    
    407000   160.57106     -18070.626      447.19319    
    408000   179.78679     -18001.729      762.64869    
    409000   180.98665     -18038.374      389.69545    
    410000   178.92393     -18057.472      243.88042    
    411000   179.2834      -18040.19       440.49313    
    412000   181.51896     -18018.434      936.07701    
    413000   177.61553     -18038.401      381.21818    
    414000   175.35938     -18023.266      672.08003    
    415000   174.19366     -17987.123      902.55112    
    416000   174.50473     -18052.888      553.97569    
    417000   173.94607     -18041.631      639.17891    
    418000   166.15678     -18052.085      444.91973    
    419000   176.05635     -18035.282      1145.1587    
    420000   174.41045     -18016.136      225.22216    
    421000   175.87052     -18008.579      646.78858    
    422000   169.73264     -18039.107      601.7988     
    423000   173.66484     -18077.724      388.88022    
    424000   172.92906     -18024.58      -468.1664     
    425000   176.23671     -18041.282      545.05315    
    426000   187.59028     -17952.074      966.7611     
    427000   171.13564     -17997.617      708.27878    
    428000   182.133       -17998.642      315.47063    
    429000   179.29172     -18004.964      311.42       
    430000   191.47131     -17942.716      548.26917    
    431000   169.20682     -18038.972      451.88822    
    432000   186.67288     -18037.037      33.468195    
    433000   173.42814     -18046.412     -26.142993    
    434000   176.0181      -18010.82       763.27938    
    435000   175.5225      -18026.158      630.99816    
    436000   177.72685     -17983.103      341.62799    
    437000   172.62257     -17971.856      903.16945    
    438000   185.63448     -17980.792      279.69113    
    439000   182.76345     -18014.63       491.39187    
    440000   176.33729     -18021.398      27.64758     
    441000   180.1986      -18054.042      328.76713    
    442000   166.83985     -18060.905      340.61399    
    443000   176.53284     -18002.973     -8.3358562    
    444000   175.18963     -18009.984      583.42409    
    445000   176.27658     -18031.6        216.14066    
    446000   171.10356     -18057.263      163.31924    
    447000   175.60359     -18038.239      368.66507    
    448000   179.73425     -18018.056      550.80954    
    449000   178.4096      -17990.891      616.90029    
    450000   177.03698     -18011.168      270.1168     
    451000   171.76324     -18022.015      610.08657    
    452000   180.75769     -17960.573      932.82961    
    453000   179.94393     -17985.279      674.5073     
    454000   180.24523     -18036.231      169.45411    
    455000   175.01104     -18019.716      357.26865    
    456000   180.32902     -18015.555      217.34968    
    457000   178.28847     -17988.196      303.93401    
    458000   178.30666     -18016.025      113.81753    
    459000   181.72891     -18008.474      375.52782    
    460000   178.3648      -18031.489      470.05529    
    461000   165.45049     -18075.332      245.26648    
    462000   185.13717     -18026.687      293.26317    
    463000   192.09365     -18026.673      53.310697    
    464000   166.72575     -18059.169      215.13304    
    465000   178.12717     -18055.044     -280.18529    
    466000   168.82419     -18043.837      146.90314    
    467000   179.94299     -18041.856      344.90678    
    468000   182.09824     -17979.226      459.25832    
    469000   181.9325      -17994.618      157.21841    
    470000   171.98882     -18016.108      185.17052    
    471000   175.81629     -18060.413      360.56079    
    472000   173.97785     -18046.246      393.7123     
    473000   190.60666     -17986.549      409.68       
    474000   186.07194     -17998.384      366.01067    
    475000   180.42525     -18026.052      382.28911    
    476000   179.65704     -18069.339     -506.78206    
    477000   170.90053     -18065.363      455.1458     
    478000   170.2616      -18081.922      297.38614    
    479000   175.12428     -18066.984      240.05658    
    480000   177.18763     -18046.189      59.817069    
    481000   184.11695     -18050.199      46.161949    
    482000   185.53206     -18066.407     -90.615762    
    483000   163.71206     -18116.916     -462.9563     
    484000   184.80141     -18039.322     -12.215251    
    485000   181.49468     -18048.841     -45.534793    
    486000   184.15428     -17996.252      492.16217    
    487000   190.47902     -18004.861      323.62553    
    488000   181.74016     -18078.937      21.386359    
    489000   179.691       -18055.396      16.819542    
    490000   179.05564     -18031.975      524.30504    
    491000   177.91414     -18047.122      7.5270252    
    492000   165.42662     -18116.102     -86.187652    
    493000   179.68806     -18046.189     -95.338768    
    494000   177.15953     -18027.437     -340.3289     
    495000   173.44081     -18054.257     -62.638058    
    496000   170.24434     -18075.834     -302.39579    
    497000   184.19654     -17994.905      170.76701    
    498000   187.39234     -18024.782      337.84914    
    499000   173.85094     -18057.792      300.46227    
    500000   175.10786     -18080.021     -82.613123    
    501000   170.86842     -18101.878     -117.79859    
    502000   170.52885     -18095.64       110.66102    
    503000   177.52634     -18046.688     -344.42812    
    504000   181.48969     -18041.18       47.501497    
    505000   171.14719     -18120.604     -245.52562    
    506000   181.15615     -18064.255      227.44557    
    507000   176.3462      -18055.963      268.3169     
    508000   178.94311     -18046.239      324.57008    
    509000   176.8005      -18086.437     -418.84148    
    510000   179.68047     -18067.942     -383.82447    
    511000   172.8359      -18055.096      214.56769    
    512000   174.76067     -18045.275      89.839447    
    513000   173.91859     -18029.839      141.85228    
    514000   174.58832     -18036.155      361.08513    
    515000   173.14728     -18082.74       310.88475    
    516000   178.30789     -18067.723     -197.71051    
    517000   175.38235     -18036.289      118.30529    
    518000   182.64675     -18042.218      115.04191    
    519000   167.75892     -18089.155      141.05641    
    520000   174.92518     -18074.283      116.43893    
    521000   194.48709     -17987.682      179.66453    
    522000   177.12971     -18040.538     -223.82391    
    523000   175.77854     -18074.036      106.01374    
    524000   186.26005     -17977.082      279.89388    
    525000   184.34162     -18024.025      441.93239    
    526000   177.65092     -18042.429      77.470482    
    527000   181.50847     -18071.705     -369.83256    
    528000   176.21378     -18054.099      265.17306    
    529000   180.85405     -18060.515      354.07737    
    530000   177.41551     -18038.929      321.85138    
    531000   175.5899      -18071.761      133.0069     
    532000   167.98082     -18090.731      538.10325    
    533000   182.39961     -18040.455      173.63018    
    534000   174.28103     -18059.466      271.77368    
    535000   177.76772     -18029.444      475.89951    
    536000   189.54612     -18013.693      292.17883    
    537000   178.45773     -18039.148      415.87986    
    538000   167.58077     -18057.855      235.56555    
    539000   192.8225      -18030.26      -601.54824    
    540000   187.54231     -18020.619     -481.28037    
    541000   181.48968     -18031.647      36.193636    
    542000   168.63295     -18064.067      85.521563    
    543000   176.49864     -18070.094      198.01525    
    544000   188.65816     -18004.606      258.36325    
    545000   180.52057     -18021.164     -51.701323    
    546000   176.66121     -18051.432      30.268321    
    547000   178.49982     -18047.68       591.28896    
    548000   180.87255     -18003.806      109.19085    
    549000   178.15398     -18014.471      405.28524    
    550000   177.90136     -18048.046     -294.38361    
    551000   182.41774     -18056.234      128.57763    
    552000   181.43331     -18040.128     -171.22417    
    553000   186.20619     -18003.514      163.68443    
    554000   178.6302      -18040.379      442.98943    
    555000   178.23333     -18059.362     -53.904959    
    556000   176.6439      -18038.514      300.11312    
    557000   173.22016     -18060.098      308.49669    
    558000   169.70883     -18069.399      103.66739    
    559000   177.75823     -18085.55       121.47033    
    560000   177.00869     -18055.36       0.39321651   
    561000   182.63309     -18051.217     -282.23613    
    562000   179.59495     -18021.734      434.47129    
    563000   174.59536     -18045.022      85.65388     
    564000   174.15314     -18052.328     -119.65573    
    565000   173.76452     -18110.425     -400.15899    
    566000   176.12683     -18048.803      228.52825    
    567000   176.30239     -18040.453      264.91755    
    568000   180.03438     -18050.911     -102.25105    
    569000   173.59839     -18092.711     -117.61109    
    570000   180.85918     -18043.654      405.671      
    571000   171.29796     -18064.549     -581.81521    
    572000   181.69183     -18043.833      97.57164     
    573000   176.58987     -18037.774     -373.03338    
    574000   179.35057     -18073.607     -90.546102    
    575000   186.26823     -17991.196      122.68294    
    576000   182.62576     -18011.595      437.82906    
    577000   179.62076     -18063.316     -539.22378    
    578000   179.08163     -18076.524     -753.29434    
    579000   176.79498     -18025.111      56.627861    
    580000   185.10719     -18008.955     -89.419063    
    581000   185.09617     -18032.496      220.87352    
    582000   187.08796     -18012.81       110.04706    
    583000   177.30402     -18047.841      17.874179    
    584000   180.32358     -18067.148     -103.88479    
    585000   189.73268     -18027.157      2.2805967    
    586000   189.83045     -18041.171     -167.16301    
    587000   176.71564     -18064.183     -86.826602    
    588000   177.52544     -18049.147     -420.61649    
    589000   187.64634     -18000.769      495.98151    
    590000   180.5724      -18052.108      333.47333    
    591000   182.01805     -18023.805     -70.025988    
    592000   182.47209     -18041.447      429.12279    
    593000   170.97657     -18112.076     -498.22709    
    594000   169.36515     -18067.607     -399.61541    
    595000   176.6219      -18042.97       81.518759    
    596000   179.91645     -18022.095     -10.701919    
    597000   185.8912      -17997.966      8.776069     
    598000   179.243       -18045.756     -19.831797    
    599000   175.33094     -18058.646     -30.157188    
    600000   175.54084     -18072.169      4.1593817    
    601000   179.17767     -18039.783      274.34584    
    602000   180.74226     -18014.537      185.78788    
    603000   189.8116      -17993.801      259.23706    
    604000   171.64517     -18066.211     -178.24291    
    605000   180.69238     -18048.615      194.25484    
    606000   179.11985     -18051.947      95.920573    
    607000   180.52144     -18020.206      5.0751652    
    608000   173.50401     -18028.07       112.55417    
    609000   177.18869     -18048.48       342.2737     
    610000   180.84824     -18072.307      172.64711    
    611000   177.78138     -18045.666      238.27677    
    612000   176.18574     -18066.355     -207.52035    
    613000   172.1372      -18081.585     -88.779994    
    614000   173.14158     -18087.076      89.869094    
    615000   176.67892     -18042.75       304.5294     
    616000   181.91134     -18023.629      291.8734     
    617000   182.24745     -18024.063      326.9303     
    618000   170.88195     -18065.614     -82.952574    
    619000   182.8728      -18037.192      86.632362    
    620000   177.73225     -18043.14       642.62845    
    621000   171.90297     -18079.014     -8.8232319    
    622000   175.39894     -18069.962      266.83817    
    623000   181.3615      -18050.101      178.61895    
    624000   171.41733     -18094.804      21.55412     
    625000   177.95068     -18057.226     -76.560657    
    626000   178.88543     -18026.797      307.00642    
    627000   186.74611     -18038.101     -232.75629    
    628000   170.77211     -18054.918      378.04681    
    629000   172.98487     -18067.935      181.47888    
    630000   188.43884     -17982.528      588.97098    
    631000   180.69061     -18052.392     -114.0801     
    632000   168.65622     -18080.655     -307.99697    
    633000   173.69954     -18086.95       86.220289    
    634000   187.97467     -18049.433      133.42092    
    635000   183.56296     -18048.112     -133.72111    
    636000   174.29389     -18081.122      65.016542    
    637000   169.11005     -18088.015      385.02819    
    638000   172.61361     -18072.019      293.64287    
    639000   186.44667     -18053.207     -123.96227    
    640000   180.73152     -18041.031     -57.270126    
    641000   181.75637     -18070.55       115.49425    
    642000   172.04737     -18105.082      81.136433    
    643000   168.18368     -18050.282      10.075866    
    644000   185.2369      -18026.627      312.63749    
    645000   174.87587     -18071.205      111.98737    
    646000   169.01788     -18080.354      122.06805    
    647000   171.72102     -18060.242     -11.332527    
    648000   182.31973     -18024.364     -19.23127     
    649000   172.63247     -18048.784      101.26613    
    650000   177.46289     -18086.529      36.675747    
    651000   172.19647     -18079.639      91.661534    
    652000   175.02779     -18017.465     -392.96335    
    653000   172.20027     -18050.706      93.069157    
    654000   172.91143     -18067.094      263.99509    
    655000   182.91195     -18033.701      371.13808    
    656000   187.77429     -18016.592      110.38523    
    657000   183.68696     -18018.536      384.80827    
    658000   177.883       -18063.103      103.38146    
    659000   182.5637      -18064.417      277.52638    
    660000   188.66759     -18029.985      193.27296    
    661000   184.85441     -18053.998      513.67767    
    662000   178.66846     -18052.595      257.25483    
    663000   175.52802     -18075.672      440.59168    
    664000   163.53328     -18135.677     -299.80852    
    665000   184.20077     -18028.493      76.532189    
    666000   180.94934     -18037.976      326.05408    
    667000   173.43323     -18059.482      214.65853    
    668000   169.29549     -18088.118     -146.38135    
    669000   176.28849     -18084.453     -245.40477    
    670000   174.51205     -18039.441      149.48326    
    671000   178.07102     -18027.758      346.56408    
    672000   183.89656     -18013.011      339.73448    
    673000   179.75978     -18038.23       3.173386     
    674000   177.43234     -18057.153      259.19874    
    675000   179.21786     -18033.201      326.86884    
    676000   180.86769     -18061.979      283.29489    
    677000   165.94996     -18105.593      92.058423    
    678000   177.76541     -18075.171      64.710291    
    679000   176.5831      -18049.491     -18.223802    
    680000   190.78287     -18015.93      -102.95118    
    681000   172.10806     -18049.493      240.13924    
    682000   184.07111     -18048.145      13.972668    
    683000   185.14583     -18012.748      79.642384    
    684000   184.48918     -18041.788      195.39255    
    685000   170.48548     -18089.746      48.344262    
    686000   174.74974     -18066.527      181.67917    
    687000   177.95929     -18029.073      314.98823    
    688000   179.72795     -18051.29       274.84119    
    689000   173.18463     -18104.441     -67.53029     
    690000   176.92296     -18084.254      312.05167    
    691000   179.99906     -18046.715     -32.660487    
    692000   178.76017     -18040.246      639.10029    
    693000   189.06379     -18023.063     -124.8015     
    694000   177.85656     -18060.149      71.344927    
    695000   175.43074     -18053.649     -151.94464    
    696000   173.48246     -18034.512      64.174004    
    697000   183.14746     -18045.396     -324.96847    
    698000   178.15118     -18063.583      20.299093    
    699000   176.25595     -18064.328     -326.85118    
    700000   189.33879     -17988.656      447.75758    
    701000   183.65084     -18038.327     -36.169426    
    702000   177.98511     -18066.216      209.01499    
    703000   178.38371     -18049.459      264.0239     
    704000   180.3747      -18042.532     -166.38346    
    705000   177.81796     -18034.102     -231.41334    
    706000   172.81896     -18109.003     -72.981751    
    707000   168.87309     -18096.446     -188.11622    
    708000   176.51038     -18039.272     -83.849554    
    709000   172.39427     -18074.952      251.58762    
    710000   163.57989     -18066.949      275.3532     
    711000   177.06057     -18086.23      -365.79464    
    712000   186.40077     -18055.336      178.25703    
    713000   180.93248     -18070.93      -93.55579     
    714000   168.83117     -18081.829      491.15354    
    715000   178.1953      -18041.851      181.677      
    716000   180.2215      -18040.328     -430.07459    
    717000   183.32844     -18057.569      206.89038    
    718000   182.19717     -18012.394      354.19984    
    719000   178.47198     -18025.418      308.84768    
    720000   174.00904     -18075.242     -302.78669    
    721000   182.35304     -18021.474     -68.710876    
    722000   181.65837     -18031.651      321.91935    
    723000   183.19582     -18031.429      356.05738    
    724000   172.51346     -18058.114     -119.00197    
    725000   174.83751     -18072.458      615.80337    
    726000   172.92078     -18105.562     -175.61001    
    727000   176.16345     -18023.14       515.43406    
    728000   174.13516     -18071.474     -26.268617    
    729000   170.44508     -18076.513     -115.87032    
    730000   179.08409     -18057.246     -46.0181      
    731000   186.24544     -18034.469      130.88127    
    732000   173.72288     -18050.973     -261.26183    
    733000   169.27783     -18055.355     -302.40433    
    734000   185.64735     -18027.279      90.649499    
    735000   186.71215     -18010.039      224.33952    
    736000   182.8665      -18000.966      265.73855    
    737000   178.04781     -18057.476      316.50146    
    738000   178.10731     -18058.513      457.8434     
    739000   170.78258     -18059.633      286.56415    
    740000   187.12507     -18004.726      333.58226    
    741000   181.08039     -18020.784     -7.8558226    
    742000   165.53097     -18071.882      411.9813     
    743000   174.2956      -18069.93       161.33649    
    744000   177.77587     -18039.712      50.1567      
    745000   186.18707     -18030.64       309.39868    
    746000   176.11837     -18070.939     -160.77693    
    747000   180.34152     -18068.507     -335.63294    
    748000   176.82652     -18073.193     -340.97898    
    749000   179.71368     -18036.544      380.52983    
    750000   190.91747     -18022.87       75.927763    
    751000   183.62005     -18009.038      382.51828    
    752000   177.92805     -18060.548     -132.1349     
    753000   187.2342      -18061.189     -277.88804    
    754000   174.71605     -18044.804      78.639708    
    755000   193.08688     -18006.787      354.16591    
    756000   184.43754     -18005.885     -5.4035153    
    757000   171.87129     -18057.227      280.18471    
    758000   180.76844     -18083.671     -168.87356    
    759000   181.90293     -18040.485      381.16114    
    760000   181.41107     -18007.935      301.05958    
    761000   188.19739     -18036.607     -4.7704523    
    762000   178.53317     -18075.939      229.34193    
    763000   174.895       -18085.013      54.608608    
    764000   174.53465     -18097.708     -4.1251252    
    765000   179.31676     -18064.543     -92.852641    
    766000   177.98611     -18064.285      188.09424    
    767000   172.18262     -18090.948      110.20899    
    768000   169.24635     -18064.172      226.33551    
    769000   183.52316     -18028.135      127.20012    
    770000   182.24937     -18034.52       184.26683    
    771000   182.88811     -18034.279      243.19445    
    772000   175.5169      -18073.743      166.40955    
    773000   168.11275     -18092.444      161.37181    
    774000   175.32206     -18059.404      261.53021    
    775000   184.13514     -18046.947      185.18082    
    776000   196.39569     -17986.739      80.247808    
    777000   179.41391     -18057.265     -154.12242    
    778000   184.11679     -18068.321     -151.21834    
    779000   175.95971     -18057.605     -9.3899079    
    780000   182.65459     -18018.691      347.60193    
    781000   180.18113     -18016.667      97.847553    
    782000   171.84744     -18066.12      -364.58883    
    783000   173.96774     -18076.401     -168.00814    
    784000   182.04847     -18039.209      108.61318    
    785000   181.33081     -18041.668     -269.3714     
    786000   172.4889      -18073.153      53.781612    
    787000   188.01418     -18024.76       319.46623    
    788000   179.61266     -18028.426      214.05502    
    789000   180.68441     -18074.268      166.71023    
    790000   180.00787     -18080.66      -311.8683     
    791000   177.94898     -18064.113      217.47384    
    792000   187.33707     -18016.493      166.71897    
    793000   181.46631     -18032.55       293.32529    
    794000   176.0209      -18032.319      339.68485    
    795000   164.04661     -18128.208      38.094942    
    796000   175.34447     -18065.652     -263.72363    
    797000   176.79281     -18046.531      81.441117    
    798000   180.6923      -18028.306      224.36695    
    799000   185.71848     -18025.948      518.93499    
    800000   180.0423      -18071.723     -141.44387    
    801000   173.49735     -18060.108      293.16423    
    802000   188.91967     -18020.175      94.273148    
    803000   181.22522     -18018.548     -113.87749    
    804000   176.23359     -18084.068     -49.076732    
    805000   175.06349     -18051.951     -161.1376     
    806000   181.04742     -18068.717     -314.69635    
    807000   175.9549      -18114.795     -46.525968    
    808000   170.48952     -18075.422      320.66298    
    809000   170.40462     -18049.682      191.53431    
    810000   187.95685     -18020.681      66.398921    
    811000   184.89938     -18047.887     -451.1521     
    812000   167.64065     -18084.851      193.38126    
    813000   169.4947      -18093.992     -107.57153    
    814000   176.07236     -18059.523      44.230108    
    815000   177.25598     -18064.14      -372.51218    
    816000   172.44048     -18096.054      50.81297     
    817000   177.62834     -18069.507     -21.833234    
    818000   182.08615     -18064.62      -92.827412    
    819000   183.96265     -18040.179     -259.11822    
    820000   185.23269     -18011.446      601.8125     
    821000   189.41326     -18042.559      139.26267    
    822000   180.15651     -18076.255      15.731915    
    823000   174.87792     -18087.234     -253.21054    
    824000   169.64551     -18109.216      35.921279    
    825000   176.62354     -18031.053      170.04411    
    826000   174.97003     -18034.709      250.6907     
    827000   173.6721      -18089.514     -246.73969    
    828000   171.89072     -18090.437     -58.117347    
    829000   170.73315     -18055.283     -197.18143    
    830000   180.11039     -18042.578      66.98791     
    831000   192.39603     -17978.245      113.54499    
    832000   173.90604     -18082.622     -321.89375    
    833000   184.40885     -18062.628      286.36574    
    834000   184.42635     -17981.744      313.18498    
    835000   175.74864     -18056.762      537.34053    
    836000   173.16501     -18064.273      130.97775    
    837000   171.53961     -18085.857     -322.71944    
    838000   180.00291     -18052.55       217.06327    
    839000   183.42705     -18036.636     -447.74358    
    840000   175.9108      -18032.601     -99.51236     
    841000   171.95836     -18071.472     -469.89618    
    842000   177.48169     -18084.157     -146.62051    
    843000   174.48788     -18069.188      231.76937    
    844000   192.08301     -17979.169     -188.65525    
    845000   184.2915      -18042.682     -172.5825     
    846000   176.94088     -18070.231     -181.11915    
    847000   180.23267     -18037.813      257.4753     
    848000   183.32853     -18003.855      109.2792     
    849000   179.01803     -18060.601      122.02371    
    850000   176.83429     -18078.61      -227.15473    
    851000   181.50506     -18090.397      32.317366    
    852000   181.28665     -18072.018     -85.957027    
    853000   183.44542     -18044.495      219.9912     
    854000   186.3352      -18055.97      -229.26121    
    855000   177.28154     -18077.396     -305.08809    
    856000   173.55226     -18098.188      130.98091    
    857000   176.52841     -18073.998     -88.859516    
    858000   180.66374     -18059.602      169.3874     
    859000   176.22078     -18082.835     -24.963233    
    860000   171.37941     -18096.41      -259.56753    
    861000   176.27182     -18087.45      -2.4420768    
    862000   168.25488     -18075.746      259.26812    
    863000   178.61498     -18054.813      217.51442    
    864000   191.53851     -18035.24       387.51207    
    865000   173.16768     -18064.437      340.2811     
    866000   172.93609     -18036.397      152.67199    
    867000   174.98895     -18062.663     -195.61162    
    868000   182.63237     -18049.982      496.09937    
    869000   193.43208     -18020.829      210.69067    
    870000   188.3236      -18033.701     -43.958915    
    871000   173.39154     -18040.185     -188.86633    
    872000   186.2252      -18048.994      265.54971    
    873000   175.82703     -18077.74       341.99797    
    874000   185.14944     -18023.686      364.8308     
    875000   185.3786      -18052.095      5.3838967    
    876000   178.75332     -18069.106     -96.523652    
    877000   176.67147     -18028.164      102.55008    
    878000   175.68202     -18067.668      18.643773    
    879000   174.32189     -18075.725     -3.0491488    
    880000   179.35951     -18058.702      188.24416    
    881000   181.46498     -18025.242     -15.833564    
    882000   179.88219     -18061.038      202.03521    
    883000   183.21671     -18033.092      774.34592    
    884000   183.38339     -18037.016      368.09222    
    885000   173.55957     -18062.507      196.15407    
    886000   175.89827     -18071.547     -243.5167     
    887000   184.18701     -18035.651     -193.38719    
    888000   183.01696     -18037.921      270.91643    
    889000   189.39978     -18017.031      106.17075    
    890000   177.21847     -18047.476      421.09577    
    891000   168.60832     -18078.249      172.59838    
    892000   172.41703     -18068.271      302.08927    
    893000   180.51129     -18020.077      181.95919    
    894000   184.53529     -18055.143     -515.26502    
    895000   171.02637     -18079.032     -245.61733    
    896000   168.28375     -18099.236     -126.85232    
    897000   178.90603     -18067.557      298.67597    
    898000   180.21616     -18033.483      634.53586    
    899000   176.21029     -18065.556      6.6159332    
    900000   175.66697     -18055.028     -1.1262885    
    901000   170.80064     -18099.266      69.118368    
    902000   176.32177     -18073.313     -90.767749    
    903000   183.2827      -18040.797     -92.273436    
    904000   189.28803     -18027.384      293.63847    
    905000   180.43388     -18050.677     -64.90902     
    906000   175.85939     -18094.909     -222.19072    
    907000   175.27503     -18066.047     -33.300102    
    908000   178.28798     -18060.634      159.71726    
    909000   185.47371     -18008.114      170.97802    
    910000   180.22975     -18087.061     -97.373154    
    911000   171.38867     -18109.095      173.15713    
    912000   183.66475     -18049.064      269.11547    
    913000   186.54685     -18043.425     -485.02335    
    914000   175.56274     -18081.786     -33.618278    
    915000   176.26761     -18066.305      321.76387    
    916000   181.12349     -18035.922      374.45521    
    917000   190.41576     -18052.603     -240.54809    
    918000   177.16079     -18061.243     -287.63652    
    919000   169.78914     -18126.088     -23.503087    
    920000   174.84939     -18058.688      348.00407    
    921000   177.98003     -18036.1        0.81391889   
    922000   180.44704     -18036.548     -158.02144    
    923000   184.28065     -18039.848      308.78124    
    924000   173.90482     -18070.818      137.44676    
    925000   178.57126     -18075.046     -39.121763    
    926000   174.4742      -18074.177     -1.1668755    
    927000   186.31411     -17974.198      448.67742    
    928000   175.2231      -18083.795      350.04776    
    929000   178.89726     -18078.23      -102.98036    
    930000   173.55382     -18062.864     -77.406252    
    931000   179.51587     -18044.729      103.94853    
    932000   189.32749     -18055.875     -369.72114    
    933000   171.54623     -18094.404      47.692663    
    934000   181.84434     -18079.727     -78.909881    
    935000   179.21346     -18042.811      328.30206    
    936000   183.57016     -18021.285      145.09696    
    937000   174.36597     -18073.664     -174.36107    
    938000   168.81179     -18090.715     -321.07488    
    939000   177.89514     -18045.143      358.72983    
    940000   184.96039     -18032.206      114.61614    
    941000   169.95237     -18068.409     -42.308635    
    942000   164.77685     -18098.884     -259.50961    
    943000   176.61368     -18055.926     -288.83529    
    944000   181.7913      -18058.696      215.74215    
    945000   183.55428     -18071.454      71.483597    
    946000   186.95477     -18070.63       59.770044    
    947000   171.64171     -18075.911     -207.84239    
    948000   173.91862     -18061.791     -47.134298    
    949000   175.795       -18062.247      303.87839    
    950000   179.43674     -18072.981      45.01499     
    951000   178.4992      -18099.197     -189.29023    
    952000   178.37476     -18081.406     -2.7010863    
    953000   173.94633     -18039.866     -67.944552    
    954000   187.24128     -18014.555      271.0378     
    955000   170.72491     -18036.506      247.56815    
    956000   180.47612     -18029.403      301.55534    
    957000   164.51641     -18136.898     -505.88706    
    958000   175.18498     -18064.217     -302.85631    
    959000   179.41775     -18039.651      104.89067    
    960000   173.12595     -18049.059      241.76822    
    961000   175.03862     -18083.152     -126.539      
    962000   172.26408     -18066.42       431.73105    
    963000   181.86373     -18035.478      377.66349    
    964000   182.27762     -17990.1       -125.5322     
    965000   177.01173     -18062.374     -114.00269    
    966000   175.32551     -18077.408     -231.60246    
    967000   183.94074     -18068.598     -57.216817    
    968000   183.10845     -18038.832      452.78339    
    969000   162.35652     -18085.925      75.359311    
    970000   171.96746     -18088.006     -130.03731    
    971000   177.80793     -18093.049     -326.97543    
    972000   181.34091     -18048.266     -160.6462     
    973000   185.69135     -18048.702     -97.536101    
    974000   177.11194     -18085.064     -171.44452    
    975000   179.10941     -18097.665     -370.69907    
    976000   173.42532     -18078.859      0.095283162  
    977000   180.86665     -18057.94       1.4148317    
    978000   182.93588     -18051.924     -50.15189     
    979000   181.48872     -18073.918     -243.44432    
    980000   172.90045     -18105.419     -460.04643    
    981000   187.03694     -18046.253      210.29894    
    982000   180.03614     -18045.768      105.19527    
    983000   189.05015     -18036.539     -17.214135    
    984000   182.63295     -18010.675      575.98535    
    985000   179.20911     -18061.613      420.39297    
    986000   174.50432     -18058.594     -96.739474    
    987000   185.42063     -18030.842     -142.2787     
    988000   181.33954     -18050.829     -324.84254    
    989000   171.73489     -18101.098     -154.57854    
    990000   178.79331     -18084.63      -220.08271    
    991000   175.01622     -18050.836     -59.517743    
    992000   181.2475      -18067.67       84.76705     
    993000   197.85709     -18009.601     -180.35063    
    994000   174.89399     -18048.729      207.29992    
    995000   173.34772     -18058.587     -70.669728    
    996000   177.45246     -18083.762     -284.33546    
    997000   173.67769     -18081.206      93.166895    
    998000   171.38588     -18099.272     -252.65167    
    999000   173.81072     -18092.869     -319.82026    
   1000000   176.0981      -18066.525      144.16899    
   1001000   182.14521     -18064.646     -28.088365    
   1002000   173.42974     -18073.057      103.4932     
   1003000   170.89968     -18101.746     -12.917405    
   1004000   176.79812     -18082.851      180.25151    
   1005000   186.78387     -18042.141      434.44765    
   1006000   181.62473     -18032.087     -101.57879    
   1007000   170.34498     -18060.647      399.72102    
   1008000   175.82415     -18090.876      213.40978    
   1009000   183.43531     -18057.196      210.61861    
   1010000   185.03054     -18053.741      106.18006    
   1011000   170.73121     -18057.329      239.97742    
   1012000   169.09014     -18119.9       -13.072759    
   1013000   171.17077     -18085.656      111.98385    
   1014000   182.41823     -18046.972      55.17643     
   1015000   178.3499      -18059.72      -109.16251    
   1016000   169.61532     -18090.321      90.147492    
   1017000   178.08854     -18048.119      25.976254    
   1018000   182.89062     -18030.267      467.56673    
   1019000   182.85909     -18011.996      188.01896    
   1020000   182.0229      -18023.373      474.93127    
   1021000   178.88978     -18099.31       161.82485    
   1022000   180.69463     -18086.921     -335.72037    
   1023000   178.44261     -18081.001     -73.631338    
   1024000   184.48515     -18045.959      112.76332    
   1025000   179.92203     -18053.052      206.73765    
   1026000   180.51035     -18048.528     -177.65833    
   1027000   172.36636     -18085.329      24.798764    
   1028000   184.92882     -18062.631     -11.481968    
   1029000   184.45282     -18045.119     -4.5342713    
   1030000   179.26986     -18048.186      89.137074    
   1031000   175.47006     -18054.027     -107.94984    
   1032000   176.74404     -18090.392     -506.59055    
   1033000   176.76951     -18118.675     -687.44703    
   1034000   174.42974     -18079.196      226.15883    
   1035000   185.21574     -18054.524      231.00522    
   1036000   185.04026     -18082.327     -231.10001    
   1037000   176.26447     -18088.642     -258.5112     
   1038000   185.09872     -18046.212      416.16376    
   1039000   186.00547     -18037.208     -46.332372    
   1040000   177.20694     -18048.617     -363.92042    
   1041000   184.09798     -18079.909      333.47011    
   1042000   165.66947     -18113.364     -321.4242     
   1043000   180.22151     -18081.119     -490.1268     
   1044000   179.7595      -18065.425      190.94437    
   1045000   174.50592     -18087.676     -287.33842    
   1046000   175.60081     -18073.901     -143.25602    
   1047000   174.33511     -18076.494      265.08867    
   1048000   175.81637     -18050.647      447.17295    
   1049000   175.13508     -18033.036      357.7667     
   1050000   173.34255     -18070.915      230.60574    
   1051000   182.23282     -18072.445     -181.21667    
   1052000   187.64918     -18041.361      138.84761    
   1053000   187.676       -18040.061      68.768922    
   1054000   183.59344     -18038.795      133.22341    
   1055000   176.64364     -18075.053     -61.425342    
   1056000   169.96788     -18077.784      659.29389    
   1057000   182.73653     -18055.659     -179.47958    
   1058000   185.35088     -18039.858      36.78339     
   1059000   181.42549     -18058.364     -10.057767    
   1060000   184.27674     -18068.839      208.17473    
   1061000   176.9284      -18085.71      -282.15017    
   1062000   169.72162     -18128.531     -561.96793    
   1063000   175.72964     -18097.844     -393.71787    
   1064000   176.10677     -18057.862     -124.23833    
   1065000   178.86413     -18053.73      -129.00896    
   1066000   173.27577     -18091.067     -383.81134    
   1067000   174.47667     -18099.563     -20.235952    
   1068000   177.93416     -18073.967     -217.27969    
   1069000   183.86327     -18067.503     -183.52339    
   1070000   174.67721     -18096.684     -170.45889    
   1071000   178.24105     -18077.674     -26.015068    
   1072000   181.82107     -18063.531     -480.20078    
   1073000   185.20235     -18043.119     -316.794      
   1074000   177.33927     -18066.685      33.475874    
   1075000   181.5454      -18074.858     -381.80317    
   1076000   182.68832     -18037.359     -175.75743    
   1077000   173.43677     -18047.243      289.85471    
   1078000   174.2093      -18088.066     -253.05451    
   1079000   181.85481     -18095.985     -323.74435    
   1080000   179.60914     -18057.893      50.506497    
   1081000   184.33766     -18058.518     -661.57029    
   1082000   181.35547     -18057.65       14.81215     
   1083000   171.54796     -18107.499     -161.88331    
   1084000   175.91578     -18079.835      65.255042    
   1085000   176.26602     -18062.759      29.871567    
   1086000   191.8037      -18026.746     -386.58305    
   1087000   181.30069     -18026.488      25.977384    
   1088000   168.51304     -18082.551      214.30594    
   1089000   166.14625     -18071.765      343.25241    
   1090000   177.31347     -18036.333      283.50883    
   1091000   196.00423     -18022.727      167.96024    
   1092000   174.91613     -18043.657      94.860501    
   1093000   171.53004     -18075.461      234.36294    
   1094000   175.28745     -18089.83       20.365241    
   1095000   175.71975     -18132.126     -56.76027     
   1096000   186.78962     -18059.505     -163.57428    
   1097000   184.54609     -18053.944      145.7905     
   1098000   180.31522     -18085.232     -273.40693    
   1099000   168.83154     -18103.609     -25.655009    
   1100000   178.25198     -18096.494      132.92948    
   1101000   178.08599     -18053.242     -184.44053    
   1102000   180.06112     -18022.554      453.41934    
   1103000   172.98365     -18076.86       8.8689511    
   1104000   173.2639      -18084.986      71.121089    
   1105000   183.08886     -18048.252     -129.27425    
   1106000   185.40167     -18024.102      640.45055    
   1107000   170.41311     -18078.983      102.79184    
   1108000   176.88309     -18065.256     -44.054997    
   1109000   181.34824     -18004.145      142.34093    
   1110000   175.29739     -18090.493     -149.79304    
   1111000   179.87154     -18084.615      251.75782    
   1112000   187.97559     -17995.492      287.88782    
   1113000   169.43381     -18073.642      237.49907    
   1114000   176.36446     -18074.671      183.3501     
   1115000   178.9504      -18100.506     -353.64218    
   1116000   178.86806     -18073.43      -122.87093    
   1117000   176.4762      -18066.067      523.96084    
   1118000   183.60208     -18063.415     -163.76162    
   1119000   175.72123     -18094.732     -446.74016    
   1120000   172.12081     -18106.744     -345.00281    
   1121000   173.52134     -18080.862     -54.415521    
   1122000   182.1735      -18032.835      319.4782     
   1123000   181.57388     -18067.232      180.11855    
   1124000   172.32958     -18080.136      79.178022    
   1125000   167.11592     -18081.863      307.83484    
   1126000   183.6079      -18071.078      46.56        
   1127000   189.86121     -18065.408      299.07575    
   1128000   184.29014     -18049.411      248.73635    
   1129000   171.53951     -18095.267      37.306942    
   1130000   179.87934     -18072.096     -167.02996    
   1131000   190.89663     -18037.491     -188.44733    
   1132000   179.03355     -18054.254      204.65518    
   1133000   180.29026     -18083.373     -237.91299    
   1134000   181.35195     -18098.123      157.99639    
   1135000   170.63049     -18096.071     -89.484111    
   1136000   181.50794     -18064.392      108.36003    
   1137000   173.49386     -18074.583     -281.8114     
   1138000   175.6713      -18033.226      367.27831    
   1139000   180.21865     -18057.798      725.0034     
   1140000   183.00065     -18081.836      2.0929212    
   1141000   181.91307     -18125.36      -618.61909    
   1142000   184.75509     -18070.64      -197.95893    
   1143000   179.74302     -18045.407      86.421396    
   1144000   178.21783     -18052.293      131.619      
   1145000   179.75826     -18081.668     -46.870432    
   1146000   171.57285     -18082.535     -151.86811    
   1147000   172.1474      -18114.496      55.351917    
   1148000   178.51261     -18071.02       210.0245     
   1149000   182.56817     -18061.944     -1.7513639    
   1150000   175.91847     -18066.329     -202.30466    
   1151000   182.78584     -18054.257      132.01239    
   1152000   175.46908     -18068.961      250.89518    
   1153000   179.51191     -18092.288     -639.97447    
   1154000   175.99659     -18075.746     -126.1247     
   1155000   181.88898     -18098.988     -276.99089    
   1156000   170.75305     -18096.978      80.909185    
   1157000   173.44945     -18103.759     -424.7686     
   1158000   180.77023     -18074.623     -218.38473    
   1159000   178.35838     -18084.4        315.03603    
   1160000   175.01481     -18087.337     -250.06058    
   1161000   179.3914      -18047.761     -270.33004    
   1162000   188.43087     -18007.781      373.45668    
   1163000   185.35068     -18065.076     -123.22909    
   1164000   171.89314     -18092.499      78.168024    
   1165000   178.8271      -18096.554      124.0688     
   1166000   184.62825     -18078.671     -323.09833    
   1167000   177.24144     -18047.388     -184.29767    
   1168000   180.07515     -18052.295     -586.86203    
   1169000   168.24045     -18140.991     -554.14116    
   1170000   184.81287     -18094.019     -218.72704    
   1171000   179.81715     -18072.429     -299.50404    
   1172000   181.40273     -18046.247     -211.17958    
   1173000   184.92786     -18040.715      20.109106    
   1174000   189.99495     -18022.672      222.95524    
   1175000   184.34295     -18079.869     -284.08163    
   1176000   175.89951     -18084.029      196.01324    
   1177000   186.30314     -18048.903     -44.258399    
   1178000   193.04769     -18020.897     -13.956779    
   1179000   180.73995     -18061.33      -62.961783    
   1180000   175.94003     -18093.874     -158.81698    
   1181000   174.09529     -18074.851      317.73222    
   1182000   183.13788     -18047.123      77.708338    
   1183000   177.45771     -18072.521      125.93407    
   1184000   184.91865     -18063         -343.8321     
   1185000   175.70069     -18061.538     -74.905106    
   1186000   167.40143     -18127.841     -235.09717    
   1187000   175.69936     -18095.652     -265.27299    
   1188000   171.09483     -18069.005     -24.459801    
   1189000   182.06224     -18039.249     -94.381283    
   1190000   191.4533      -18032.949     -443.90255    
   1191000   170.7357      -18103.565      29.689256    
   1192000   176.84092     -18044.071      48.228959    
   1193000   178.75581     -18023.89       30.673784    
   1194000   189.58597     -18035.764      11.208631    
   1195000   177.03244     -18059.223      130.53479    
   1196000   173.00837     -18066.63       47.589641    
   1197000   171.35869     -18093.001     -460.41894    
   1198000   186.98126     -17989.869      420.57498    
   1199000   179.43689     -18032.243      95.576467    
   1200000   179.54608     -18054.91      -544.79283    
   1201000   175.23884     -18043.516      448.50733    
   1202000   179.57403     -18072.383      64.468461    
   1203000   168.82722     -18106.802     -363.88184    
   1204000   172.57696     -18087.561     -270.63487    
   1205000   167.35691     -18077.546     -650.84924    
   1206000   179.28002     -18058.677     -211.28885    
   1207000   184.48628     -18001.902      115.80885    
   1208000   188.84781     -18012.038     -196.61596    
   1209000   173.632       -18051.571      129.46942    
   1210000   172.1628      -18082.72      -212.38538    
   1211000   166.38009     -18057.128      407.87397    
   1212000   177.44957     -18048.384      158.65317    
   1213000   177.35403     -18060.791     -342.88012    
   1214000   177.08345     -18075.805     -170.18137    
   1215000   178.57946     -18073.849      104.15061    
   1216000   174.9083      -18073.503     -695.32194    
   1217000   191.52963     -17979.89       5.0151145    
   1218000   178.20192     -18064.096     -132.49675    
   1219000   179.44143     -18062.692     -72.248769    
   1220000   175.37105     -18059.215     -222.95434    
   1221000   181.13053     -18012.48       138.38705    
   1222000   188.11356     -18035.562      5.483834     
   1223000   173.42032     -18059.109      357.63084    
   1224000   178.3526      -18065.237     -385.31029    
   1225000   181.81335     -18047.369      138.91521    
   1226000   192.81836     -18005.14       22.023729    
   1227000   176.0997      -18078.03       309.10675    
   1228000   172.84545     -18110.563     -34.640296    
   1229000   181.8288      -18082.595     -462.82647    
   1230000   192.43361     -18072.834      128.05218    
   1231000   171.72426     -18076.024     -166.91357    
   1232000   182.87137     -18052.022      199.21312    
   1233000   181.01761     -18035.334     -151.09733    
   1234000   168.7041      -18079.385      75.118154    
   1235000   178.85501     -18043.265     -212.7565     
   1236000   179.10863     -18087.008     -464.19088    
   1237000   175.3768      -18068.756     -382.6824     
   1238000   186.47813     -18060.723      181.83291    
   1239000   165.25967     -18153.436     -335.1793     
   1240000   174.79459     -18038.867      189.55662    
   1241000   177.89148     -18048.39      -112.83866    
   1242000   172.98304     -18095.565      101.29849    
   1243000   164.53962     -18112.817     -95.859979    
   1244000   173.9468      -18083.479     -132.20148    
   1245000   174.23359     -18066.905     -75.913038    
   1246000   186.16845     -18036.999      208.19082    
   1247000   175.94407     -18089.166      46.026485    
   1248000   178.66397     -18057.395      319.14294    
   1249000   185.82167     -18023.216      36.85317     
   1250000   183.7959      -18022.835      280.7208     
   1251000   179.8707      -18054.765     -8.4574177    
   1252000   176.82761     -18086.667      2.7720965    
   1253000   179.23822     -18076.94       224.58164    
   1254000   172.03803     -18078.308      265.07234    
   1255000   169.3141      -18120.013     -362.33763    
   1256000   163.53604     -18121.844     -335.0847     
   1257000   174.34705     -18044.177      192.09179    
   1258000   184.92673     -18044.9        8.90979      
   1259000   175.86211     -18079.654      217.23223    
   1260000   164.6387      -18112.346     -442.2211     
   1261000   177.0125      -18107.292     -455.8289     
   1262000   183.41371     -18058.34      -35.174243    
   1263000   171.67894     -18090.194     -260.22351    
   1264000   169.55693     -18114.559      28.28777     
   1265000   183.97549     -18044.317      227.63649    
   1266000   173.61117     -18055.416      148.26305    
   1267000   174.66665     -18097.585      58.000196    
   1268000   179.23463     -18099.899      27.28677     
   1269000   180.26748     -18065.028     -610.68013    
   1270000   182.57725     -18058.138      131.98588    
   1271000   184.78423     -18062.061      333.92001    
   1272000   183.2758      -18105.733     -394.57238    
   1273000   175.29777     -18078.05      -162.43732    
   1274000   185.18256     -18033.534      222.50942    
   1275000   177.55744     -18069.469     -206.45369    
   1276000   176.20969     -18067.403     -42.756353    
   1277000   174.92399     -18090.368     -417.36396    
   1278000   179.14591     -18085.312     -6.4372797    
   1279000   178.22671     -18043.312      376.28172    
   1280000   178.42361     -18061.268     -29.080235    
   1281000   175.26997     -18053.677     -642.69719    
   1282000   171.1204      -18082.469      78.33112     
   1283000   164.59316     -18110.477     -275.81506    
   1284000   177.61635     -18048.967     -50.254206    
   1285000   179.03455     -18045.525      157.2712     
   1286000   179.1713      -18041.749     -62.622033    
   1287000   173.33994     -18102.612      130.45412    
   1288000   173.84038     -18098.387     -394.72088    
   1289000   171.561       -18090.443     -56.575351    
   1290000   174.18913     -18057.031     -138.83454    
   1291000   180.37703     -18043.216      272.97188    
   1292000   189.26438     -17998.807      0.84138433   
   1293000   184.37578     -18047.268      125.4213     
   1294000   168.97743     -18069.585      395.25272    
   1295000   183.6417      -18059.401     -375.10575    
   1296000   181.41842     -18048.32       129.56384    
   1297000   173.58626     -18090.254     -88.545113    
   1298000   184.26034     -18012.398      692.49179    
   1299000   181.29487     -18079.146      221.85056    
   1300000   182.4805      -18089.07      -30.857576    
   1301000   182.13838     -18067.779     -246.06143    
   1302000   187.8023      -18050.753     -217.37177    
   1303000   172.12493     -18046.912     -217.35569    
   1304000   182.63339     -18056.989      99.16778     
   1305000   166.79356     -18125.574     -247.10642    
   1306000   175.56783     -18053.03       44.508585    
   1307000   177.2539      -18035.978      539.80513    
   1308000   170.28998     -18130.766     -438.0117     
   1309000   176.64038     -18075.992      251.85759    
   1310000   188.48554     -18064.248     -308.38469    
   1311000   186.74374     -18016.177     -24.297233    
   1312000   184.29321     -18025.812      221.10721    
   1313000   175.55973     -18077.348     -60.97946     
   1314000   173.26666     -18056.482      175.69688    
   1315000   182.70068     -18058.202      7.5452513    
   1316000   167.10673     -18120.513     -73.82883     
   1317000   171.74478     -18118.838      87.613691    
   1318000   179.96071     -18072.651     -260.3121     
   1319000   185.22217     -18070.594     -39.581064    
   1320000   176.6401      -18047.373      361.0259     
   1321000   176.58231     -18067.675     -50.832702    
   1322000   182.98865     -18069.984      171.31498    
   1323000   179.73583     -18080.346     -162.24851    
   1324000   176.25996     -18080.923     -397.52337    
   1325000   163.4758      -18125.336      386.35101    
   1326000   182.09858     -18077.218     -204.53143    
   1327000   176.21105     -18071.235      82.593949    
   1328000   174.99782     -18065.212      59.985005    
   1329000   172.66776     -18116.942     -91.586756    
   1330000   189.32375     -18062.24      -385.0015     
   1331000   183.92491     -18054.778     -258.34049    
   1332000   166.9164      -18132.86      -480.25362    
   1333000   177.88117     -18069.348     -252.6564     
   1334000   186.85832     -18045.192      489.82207    
   1335000   178.77821     -18072.067     -135.75308    
   1336000   175.65949     -18074.498      35.626532    
   1337000   171.04132     -18100.768     -250.05081    
   1338000   165.14548     -18104.138      174.19474    
   1339000   188.69542     -18068.27      -266.21918    
   1340000   183.65898     -18058.85       465.99004    
   1341000   174.6564      -18072.149      150.59643    
   1342000   174.54703     -18117.972     -106.23382    
   1343000   167.98495     -18122.762     -103.92877    
   1344000   173.504       -18051.053      148.92123    
   1345000   181.7975      -18071.473     -141.66209    
   1346000   185.85838     -18054.398     -12.306815    
   1347000   181.53109     -18040.613      113.03852    
   1348000   191.5693      -18012.519      113.66812    
   1349000   182.20409     -18076.062     -285.84669    
   1350000   179.21916     -18073.451      266.42114    
   1351000   176.1184      -18066.644      405.64986    
   1352000   181.767       -18033.621     -206.24965    
   1353000   181.03553     -18044.221      38.417942    
   1354000   177.63698     -18071.51      -56.591022    
   1355000   179.22508     -18073.836      81.000834    
   1356000   185.78754     -18037.316     -166.06574    
   1357000   191.07009     -18018.201      11.632       
   1358000   178.77462     -18052.893     -41.411383    
   1359000   173.54511     -18094.478     -314.48541    
   1360000   166.9457      -18102.927      120.17528    
   1361000   174.3149      -18061.976      128.71061    
   1362000   191.33099     -18048.908     -132.65731    
   1363000   176.8509      -18038.395      33.936393    
   1364000   181.51509     -18077.156     -520.26991    
   1365000   169.79295     -18086.916     -58.56954     
   1366000   178.12395     -18101.173     -396.94377    
   1367000   179.97076     -18100.5       -43.00746     
   1368000   177.83337     -18065.138      280.89003    
   1369000   180.70262     -18076.047     -51.060503    
   1370000   182.77023     -18035.263     -313.04306    
   1371000   176.55476     -18082.038     -387.84645    
   1372000   173.35448     -18114.782      51.774262    
   1373000   172.17087     -18066.817     -10.853931    
   1374000   182.39016     -18047.604     -181.91907    
   1375000   177.70083     -18059.327     -11.851757    
   1376000   177.68255     -18088.75      -275.14091    
   1377000   179.65283     -18061.192      162.01911    
   1378000   178.95542     -18087.373     -29.811662    
   1379000   173.64503     -18068.686     -242.29973    
   1380000   191.15602     -18014.419     -294.24208    
   1381000   176.64047     -18059.04       479.28388    
   1382000   171.60199     -18081.526      178.48493    
   1383000   167.20737     -18102.008     -128.85169    
   1384000   171.46272     -18065.527     -70.386444    
   1385000   178.99911     -18056.317     -104.9482     
   1386000   178.37245     -18071.503     -491.85088    
   1387000   177.57991     -18092.854     -88.13084     
   1388000   171.86494     -18113.954     -190.64207    
   1389000   166.48054     -18095.914     -231.94999    
   1390000   173.65326     -18051.174      80.002945    
   1391000   174.28089     -18100.073     -174.56561    
   1392000   181.51558     -18051.554     -122.54476    
   1393000   178.61651     -18083.383     -236.64999    
   1394000   173.31725     -18095.428     -194.03312    
   1395000   171.01491     -18090.341      0.44603105   
   1396000   178.70632     -18054.499     -313.66276    
   1397000   187.19917     -18043.566     -50.541835    
   1398000   182.29302     -18053.163     -116.28687    
   1399000   178.19157     -18078.03      -453.27472    
   1400000   178.58115     -18062.298      25.952039    
   1401000   182.68456     -18031.826     -44.45648     
   1402000   185.772       -17991.976      14.691422    
   1403000   181.43544     -18044.219      29.03621     
   1404000   184.32013     -18061.64      -502.80561    
   1405000   172.72714     -18088.825     -120.80259    
   1406000   173.94724     -18108.973     -287.90411    
   1407000   178.95073     -18049.335      54.082227    
   1408000   172.07705     -18050.985      44.192185    
   1409000   186.16243     -18079.691     -130.34296    
   1410000   160.936       -18131.607     -304.26399    
   1411000   177.09815     -18064.267     -199.29854    
   1412000   180.0214      -18042.86       277.26221    
   1413000   169.65435     -18117.591     -74.225719    
   1414000   160.27085     -18099.122     -49.011845    
   1415000   171.60746     -18061.751      22.560299    
   1416000   177.918       -18041.93       45.942032    
   1417000   178.45909     -18059.388     -17.01799     
   1418000   173.30256     -18066.639     -331.6807     
   1419000   176.07871     -18086.048     -60.252635    
   1420000   167.38545     -18120.756     -254.19925    
   1421000   172.1567      -18087.674     -72.791479    
   1422000   183.76601     -18050.356     -335.49752    
   1423000   180.27331     -18056.728      16.334943    
   1424000   168.63988     -18098.907     -481.91795    
   1425000   174.83898     -18104.806     -622.17977    
   1426000   176.11698     -18062.988     -292.23958    
   1427000   190.76044     -18039.913      140.10681    
   1428000   185.6978      -18033.8       -9.1856771    
   1429000   186.26634     -18059.122      30.40162     
   1430000   183.59984     -18032.37       193.51448    
   1431000   182.67454     -18017.295     -104.01733    
   1432000   181.11836     -18047.928     -213.83066    
   1433000   179.68078     -18067.851      204.0115     
   1434000   181.09738     -18055.148      200.84758    
   1435000   188.68167     -18038.626     -206.12902    
   1436000   184.92217     -18033.077     -20.155609    
   1437000   177.55318     -18078.431     -174.00511    
   1438000   174.23264     -18087.616     -764.26781    
   1439000   175.62887     -18113.8       -525.45117    
   1440000   177.29408     -18055.624      401.03604    
   1441000   182.30575     -18059.458     -313.78031    
   1442000   187.86108     -18036.761      333.46741    
   1443000   186.92286     -18056.376     -125.58804    
   1444000   177.44598     -18070.538      164.26393    
   1445000   169.80801     -18061.364      223.18705    
   1446000   187.67199     -18022.178     -213.38554    
   1447000   189.29685     -18057.22       134.22366    
   1448000   174.47458     -18069.029     -4.512989     
   1449000   173.08854     -18065.573      21.358147    
   1450000   200.66618     -17951.585     -117.65793    
   1451000   170.298       -18082.956      240.87173    
   1452000   173.39616     -18068.74       395.99855    
   1453000   183.9027      -18039.751      24.520954    
   1454000   181.16319     -18008.374      849.87113    
   1455000   175.19276     -18048.317      290.75704    
   1456000   174.84017     -18072.359     -137.41271    
   1457000   170.0022      -18074.389      369.76504    
   1458000   182.6255      -18042.63      -19.731183    
   1459000   177.53782     -18052.061      318.06181    
   1460000   177.06607     -18066.45       135.30143    
   1461000   172.72731     -18080.087     -372.40461    
   1462000   174.24684     -18087.878     -185.10422    
   1463000   177.79084     -18040.882      142.40475    
   1464000   179.24984     -18074.22       15.120779    
   1465000   179.64369     -18095.365     -327.05646    
   1466000   181.22559     -18054.518     -61.076693    
   1467000   182.87748     -18048.969      74.579061    
   1468000   169.40041     -18071.14      -123.12962    
   1469000   180.14497     -18075.632     -365.93297    
   1470000   175.45914     -18081.317     -209.05118    
   1471000   180.84096     -18061.218     -160.29809    
   1472000   185.52317     -18028.078      601.78639    
   1473000   182.56917     -18043.368      301.81812    
   1474000   176.01027     -18061.892      381.22296    
   1475000   176.85727     -18103.696     -123.70085    
   1476000   176.76371     -18063.121     -66.67196     
   1477000   183.81363     -18063.664     -134.60612    
   1478000   174.19925     -18098.041     -165.80411    
   1479000   172.11631     -18100.917     -226.17871    
   1480000   166.1732      -18090.499     -12.213239    
   1481000   179.72851     -18076.691     -283.20555    
   1482000   179.6178      -18067.62      -204.84347    
   1483000   187.5641      -18054.985     -210.02883    
   1484000   184.54823     -18092.793     -34.696893    
   1485000   176.33523     -18092.713     -115.365      
   1486000   174.32586     -18101.346     -317.61164    
   1487000   181.07747     -18093.241     -113.82       
   1488000   183.2803      -18039.253      195.30304    
   1489000   172.36221     -18043.873      11.879951    
   1490000   177.86793     -18079.646      301.69592    
   1491000   178.57919     -18062.813      317.88647    
   1492000   178.17354     -18061.463      19.987011    
   1493000   179.5002      -18041.834      239.54114    
   1494000   174.03444     -18055.697      166.78738    
   1495000   169.27769     -18086.258      161.97044    
   1496000   181.63463     -18061.186     -113.74169    
   1497000   180.48981     -18036.978      237.39467    
   1498000   177.20712     -18048.516      72.073802    
   1499000   173.24098     -18065.782      91.735633    
   1500000   164.38927     -18094.959     -96.280694    
   1501000   173.86109     -18079.057     -251.11026    
   1502000   180.86485     -18063.075     -259.06715    
   1503000   188.59227     -18005.474     -177.71196    
   1504000   177.71529     -18062.825      112.12548    
   1505000   169.92042     -18104.424     -257.00936    
   1506000   171.81281     -18082.295      137.61867    
   1507000   176.96554     -18042.381      550.93938    
   1508000   182.1143      -18051.825      419.43088    
   1509000   184.36214     -18076.44      -302.9687     
   1510000   170.69961     -18092.881      102.08254    
   1511000   183.05753     -18034.28      -156.12444    
   1512000   180.71574     -18068.033     -448.86567    
   1513000   179.03389     -18068.637      11.661387    
   1514000   185.3585      -18023.805      112.03841    
   1515000   181.3821      -18049.399      48.495335    
   1516000   170.96867     -18077.382      136.16589    
   1517000   180.91485     -18072.509     -170.87687    
   1518000   172.60531     -18085.884     -112.86546    
   1519000   172.27439     -18073.254     -290.14222    
   1520000   177.50623     -18042.516      35.023157    
   1521000   182.25529     -18067.404     -134.05417    
   1522000   174.85226     -18101.741     -184.46409    
   1523000   174.77016     -18079.749      2.3001246    
   1524000   185.6736      -18065.735     -25.607017    
   1525000   175.60413     -18064.928     -58.246105    
   1526000   175.47325     -18093.825      92.177312    
   1527000   180.60854     -18081.471     -60.415657    
   1528000   184.15921     -18056.476     -173.44122    
   1529000   177.67662     -18042.977      2.0170191    
   1530000   170.42668     -18072.27      -168.30006    
   1531000   182.96088     -18099.683     -390.00484    
   1532000   180.01491     -18053.171     -232.08233    
   1533000   179.49119     -18058.105     -76.815712    
   1534000   166.60262     -18119.198     -422.04152    
   1535000   174.07339     -18111.09       34.153865    
   1536000   184.42572     -18052.492      405.06464    
   1537000   173.0767      -18095.154      127.81949    
   1538000   176.08123     -18095.702     -457.73223    
   1539000   191.2727      -18042.114      279.53745    
   1540000   177.06992     -18060.977     -68.72787     
   1541000   173.11174     -18096.187     -25.618431    
   1542000   176.6897      -18082.469     -232.38994    
   1543000   181.00044     -18074.255     -42.038363    
   1544000   185.79286     -18062.014     -498.70273    
   1545000   190.48544     -18021.948     -232.3632     
   1546000   179.88512     -18037.694      122.27066    
   1547000   170.63372     -18069.465      528.99888    
   1548000   175.92874     -18091.509     -140.94877    
   1549000   175.96204     -18058.22       240.58825    
   1550000   187.21367     -18003.848      516.0339     
   1551000   176.35545     -18051.302      593.44556    
   1552000   183.13599     -18071.776      128.64734    
   1553000   180.11854     -18058.389     -209.65347    
   1554000   173.3559      -18046.536     -85.936155    
   1555000   184.31672     -18038.941      52.340059    
   1556000   187.69446     -18018.985      215.03578    
   1557000   178.53137     -18071.722     -155.13604    
   1558000   176.61897     -18088.101      150.71436    
   1559000   184.62918     -18037.58      -235.88992    
   1560000   182.03268     -18059.088      222.39668    
   1561000   177.04405     -18079.272      75.057569    
   1562000   180.78387     -18076.547     -69.477104    
   1563000   178.94386     -18063.405     -67.651399    
   1564000   181.55645     -18063.236      35.473589    
   1565000   186.26852     -18073.186     -65.5642      
   1566000   169.42674     -18120.395     -271.91506    
   1567000   181.10478     -18102.61      -616.03622    
   1568000   170.96923     -18101.836     -450.20263    
   1569000   189.15484     -18020.108      186.05267    
   1570000   185.57946     -18065.259     -136.80847    
   1571000   174.99843     -18080.029     -40.491798    
   1572000   184.70178     -18083.757     -27.784809    
   1573000   173.48625     -18112.741      215.8672     
   1574000   179.96094     -18045.034      312.08797    
   1575000   187.06864     -18054.043     -66.38134     
   1576000   168.21112     -18099.508     -207.25289    
   1577000   176.52621     -18096.172     -92.564354    
   1578000   181.33873     -18052.38       167.85701    
   1579000   181.11512     -18066.72      -32.475883    
   1580000   172.82935     -18139.609     -169.38852    
   1581000   182.9308      -18039.442     -20.953237    
   1582000   187.45085     -18048.335     -73.504397    
   1583000   168.02604     -18127.144      215.42994    
   1584000   180.78221     -18046.519      134.11854    
   1585000   187.81106     -18042.847      202.68026    
   1586000   187.61033     -18037.355     -414.26689    
   1587000   169.49362     -18066.454      276.54023    
   1588000   185.91746     -18079.186     -629.72159    
   1589000   182.58344     -18063.236     -127.43387    
   1590000   178.52443     -18056.519     -161.90717    
   1591000   194.85148     -18033.827     -171.70946    
   1592000   179.23683     -18055.614     -54.770463    
   1593000   168.32598     -18064.465      89.416389    
   1594000   183.22445     -18075.354     -25.473628    
   1595000   176.87771     -18070.906     -60.784434    
   1596000   185.33041     -18034.831     -100.58028    
   1597000   190.01009     -18028.194      99.578372    
   1598000   179.99479     -18056.407      376.17976    
   1599000   179.09562     -18084.342      201.98004    
   1600000   184.6739      -18057.452     -157.17338    
   1601000   188.5898      -18015.572      426.32596    
   1602000   185.37017     -18033.809     -108.83206    
   1603000   178.43959     -18075.769     -345.82423    
   1604000   178.13498     -18080.32      -123.99478    
   1605000   173.5607      -18097.411     -154.29762    
   1606000   164.22755     -18106.557     -34.341545    
   1607000   179.57594     -18072.761     -426.82831    
   1608000   180.21441     -18078.646     -285.97392    
   1609000   177.11148     -18072.975      5.9777305    
   1610000   171.77652     -18115.591     -508.05483    
   1611000   173.43646     -18107.628     -360.97337    
   1612000   179.43851     -18051.626     -409.58797    
   1613000   173.09517     -18048.693     -108.9204     
   1614000   179.55635     -18027.697      279.0603     
   1615000   174.77092     -18061.953      157.42008    
   1616000   184.47572     -18075.748      76.233627    
   1617000   189.8614      -18054.388      65.510661    
   1618000   173.94479     -18040.401     -171.47744    
   1619000   179.53804     -18075.197     -50.521435    
   1620000   174.61913     -18079.705     -356.57702    
   1621000   180.13598     -18049.83       30.494075    
   1622000   177.45761     -18075.385     -54.843207    
   1623000   186.34546     -18059.477     -336.77876    
   1624000   173.67242     -18099.942     -386.00821    
   1625000   180.08772     -18091.181      87.192123    
   1626000   177.9728      -18054.691     -95.044098    
   1627000   180.47641     -18050.295     -369.52036    
   1628000   186.18368     -18037.388     -296.15974    
   1629000   173.42495     -18065.836     -155.94313    
   1630000   178.63176     -18102.477     -4.8855179    
   1631000   177.4514      -18074.542     -380.89613    
   1632000   182.44074     -18056.491      44.626192    
   1633000   188.11583     -18045.309     -79.808161    
   1634000   181.45482     -18063.872      224.35601    
   1635000   172.34929     -18113.962      12.440162    
   1636000   173.98581     -18094.896      7.8751984    
   1637000   179.15298     -18049.534      0.11250729   
   1638000   179.13991     -18070.034      69.86026     
   1639000   177.92932     -18075.448     -86.274753    
   1640000   170.55391     -18140.529     -214.82747    
   1641000   177.66141     -18093.157     -226.08178    
   1642000   172.90147     -18064.13       245.96905    
   1643000   184.04858     -18031.674     -36.021881    
   1644000   184.74064     -18058.778     -421.36122    
   1645000   169.47966     -18115.67      -206.67455    
   1646000   175.28197     -18112.819     -229.10168    
   1647000   180.92653     -18064.386     -163.25056    
   1648000   180.51465     -18054.673      49.028343    
   1649000   175.87513     -18136.899     -268.64837    
   1650000   178.2288      -18078.788     -621.93064    
   1651000   178.48062     -18053.889     -46.733979    
   1652000   184.51392     -18039.188      24.847304    
   1653000   177.02327     -18085.839     -343.48329    
   1654000   181.28697     -18031.704      81.630646    
   1655000   190.76507     -18025.824     -173.03314    
   1656000   188.22914     -18075.581     -761.22212    
   1657000   177.70457     -18085.238      234.81127    
   1658000   182.53795     -18060.893     -73.386893    
   1659000   187.56528     -18035.895     -150.3609     
   1660000   194.87373     -18029.74       71.013674    
   1661000   170.89233     -18102.151     -417.49863    
   1662000   173.39855     -18082.281     -319.52336    
   1663000   181.28272     -18060.45       106.35993    
   1664000   185.96375     -18048.651     -233.47028    
   1665000   184.57297     -18029.979      77.737773    
   1666000   179.91796     -18066.451      132.95261    
   1667000   178.152       -18073.521     -98.19383     
   1668000   178.32667     -18027.722      214.4115     
   1669000   185.63653     -18053.997      68.517841    
   1670000   175.43659     -18083.879     -272.70365    
   1671000   165.81806     -18097.615     -105.18139    
   1672000   180.73852     -18042.46       108.91332    
   1673000   186.31662     -18012.899      11.757517    
   1674000   174.91281     -18077.453      14.53709     
   1675000   168.50102     -18106.37      -673.05562    
   1676000   173.23548     -18039.465      333.22132    
   1677000   171.51599     -18090.501     -423.80498    
   1678000   175.09319     -18095.112     -359.10101    
   1679000   178.25037     -18086.193     -56.680901    
   1680000   180.06597     -18059.576     -146.22821    
   1681000   173.43254     -18064.503      185.80963    
   1682000   182.94868     -18086.468     -95.98222     
   1683000   165.7389      -18099.263     -317.18237    
   1684000   171.93364     -18123.095     -402.47703    
   1685000   180.85685     -18069.905     -216.82139    
   1686000   176.78773     -18081.887     -632.81314    
   1687000   175.98196     -18090.232      136.78847    
   1688000   175.88165     -18064.616     -52.967361    
   1689000   175.57285     -18072.648     -300.04902    
   1690000   163.22122     -18100.299      262.13701    
   1691000   180.42897     -18065.347     -43.777436    
   1692000   184.52099     -18077.293      56.344977    
   1693000   169.48102     -18117.337     -226.25473    
   1694000   176.09694     -18098.515     -305.89239    
   1695000   178.70774     -18042.294      53.142808    
   1696000   178.30634     -18085.638     -81.907869    
   1697000   173.46968     -18081.437     -85.802341    
   1698000   183.52628     -18053.943     -24.644357    
   1699000   177.9728      -18045.379      643.45597    
   1700000   168.44629     -18111.475     -127.25207    
   1701000   172.0068      -18124.952     -210.43105    
   1702000   185.55934     -18063.963     -367.97342    
   1703000   181.58944     -18046.948      176.85943    
   1704000   176.09387     -18071.157     -10.254218    
   1705000   183.02509     -18069.58      -768.35561    
   1706000   182.63222     -18030.052      109.24877    
   1707000   184.87595     -18050.829      56.200128    
   1708000   181.4365      -18082.043     -183.02611    
   1709000   177.62383     -18083.091     -17.007023    
   1710000   177.97209     -18056.393      39.59384     
   1711000   179.58544     -18117.137     -428.26596    
   1712000   174.31589     -18105.439     -474.30934    
   1713000   180.99909     -18075.29      -198.12211    
   1714000   173.13779     -18046.291      444.69067    
   1715000   184.88304     -18041.745      91.906674    
   1716000   184.5987      -18050.297     -480.94596    
   1717000   175.60424     -18079.924      3.2818222    
   1718000   176.80799     -18065.05       161.11463    
   1719000   183.50483     -18042.133      128.71333    
   1720000   178.91155     -18072.102     -273.79264    
   1721000   166.78089     -18110.602     -92.922227    
   1722000   178.62782     -18081.907     -35.193634    
   1723000   179.52966     -18048.449      480.41425    
   1724000   186.40966     -18054.449      253.08147    
   1725000   166.64535     -18060.62       169.66017    
   1726000   175.82573     -18088.209     -17.721424    
   1727000   173.93018     -18094.167      132.20849    
   1728000   170.03737     -18099.874     -76.64873     
   1729000   179.0288      -18053.069      100.24787    
   1730000   180.73314     -18065.95      -4.8614994    
   1731000   175.05881     -18084.824     -339.78406    
   1732000   172.53084     -18116.127     -197.94742    
   1733000   172.9013      -18117.01      -58.095419    
   1734000   171.10565     -18079.347     -22.351972    
   1735000   181.37185     -18067.017     -630.5663     
   1736000   182.56923     -18071.328     -7.237928     
   1737000   170.37135     -18106.034     -147.38024    
   1738000   175.84246     -18106.373     -442.88917    
   1739000   180.28174     -18055.657      37.714981    
   1740000   171.61778     -18075.342     -188.01708    
   1741000   173.07305     -18104.161     -77.142659    
   1742000   180.21984     -18102.498     -578.44848    
   1743000   176.62503     -18066.277      115.53042    
   1744000   184.02932     -18050.248      211.30883    
   1745000   184.53991     -18028.979     -417.2279     
   1746000   176.99224     -18060.777      426.6669     
   1747000   169.72875     -18083.379      172.79731    
   1748000   186.2815      -18048.815     -240.95059    
   1749000   176.68132     -18104.759     -168.97215    
   1750000   183.25105     -18004.578      741.78368    
   1751000   183.53996     -18062.645      190.66403    
   1752000   173.70221     -18084.081     -279.17314    
   1753000   179.99993     -18108.37      -152.93838    
   1754000   179.84761     -18080.584      74.392895    
   1755000   181.94717     -18059.991     -91.911763    
   1756000   177.23165     -18082.687      178.22828    
   1757000   170.18218     -18118.26      -498.20371    
   1758000   171.92252     -18132.277     -254.95692    
   1759000   182.48656     -18061.196     -22.385934    
   1760000   178.75052     -18070.227      114.18293    
   1761000   166.1305      -18144.442     -507.18929    
   1762000   182.96293     -18050.884     -295.5577     
   1763000   179.52275     -18070.782     -92.781349    
   1764000   169.4875      -18108.421     -242.35259    
   1765000   171.30846     -18107.178     -345.01591    
   1766000   180.05518     -18050.067     -185.08846    
   1767000   187.72123     -18077.381      68.490194    
   1768000   179.67633     -18088.033     -127.11111    
   1769000   178.1308      -18108.171     -113.48494    
   1770000   176.05116     -18080.95      -233.20881    
   1771000   181.4588      -18057.331      280.70125    
   1772000   173.44203     -18104.507     -337.84699    
   1773000   179.35676     -18061.945     -456.46311    
   1774000   192.75366     -18071.982     -263.60816    
   1775000   172.12248     -18090.747      158.71113    
   1776000   173.2864      -18123.414     -611.42754    
   1777000   182.84356     -18043.289     -299.06424    
   1778000   177.47218     -18087.999     -171.71438    
   1779000   179.85293     -18070.323     -232.16915    
   1780000   183.46115     -18033.588      217.50902    
   1781000   179.87827     -18059.176      13.960288    
   1782000   177.16483     -18059.149     -246.8272     
   1783000   173.90216     -18092.186      106.93067    
   1784000   180.70286     -18026.859      529.57944    
   1785000   190.29004     -18015.821     -133.15066    
   1786000   177.31687     -18088.952      170.4229     
   1787000   173.76499     -18068.474     -260.88018    
   1788000   188.01822     -18057.333     -370.26579    
   1789000   184.387       -18050.802     -177.10748    
   1790000   165.85685     -18130.535      275.74566    
   1791000   183.19199     -18055.425     -339.98296    
   1792000   181.63958     -18057.132     -178.70012    
   1793000   167.43697     -18100.069      2.3809331    
   1794000   166.96232     -18118.924     -264.7473     
   1795000   184.49622     -18020.273     -137.81149    
   1796000   175.24441     -18064.881      277.55186    
   1797000   179.67159     -18069.864     -90.513901    
   1798000   187.84744     -18038.668     -14.156338    
   1799000   176.84658     -18062.678      60.309878    
   1800000   165.3049      -18114.333      105.81865    
   1801000   174.86227     -18093.526     -458.24607    
   1802000   182.79955     -18044.243     -73.076993    
   1803000   172.11535     -18073.005     -8.9198692    
   1804000   177.98306     -18067.931     -255.87229    
   1805000   165.67824     -18101.106     -110.30946    
   1806000   177.07372     -18068.59      -264.24038    
   1807000   178.47157     -18040.461     -191.15919    
   1808000   181.92342     -18070.537     -221.39104    
   1809000   177.66159     -18081.983     -13.521143    
   1810000   185.26689     -18032.092     -313.36942    
   1811000   176.19717     -18035.715      64.139858    
   1812000   172.25495     -18101.427     -161.8098     
   1813000   175.96877     -18093.534     -258.61941    
   1814000   180.46556     -18048.505     -64.361369    
   1815000   180.38763     -18043.495      249.17829    
   1816000   171.89015     -18080.986     -147.97215    
   1817000   183.70944     -18033.046      322.74102    
   1818000   182.68846     -18001.962      116.91869    
   1819000   187.29895     -18036.47       45.525835    
   1820000   183.33984     -18069.652     -106.26348    
   1821000   185.33536     -18068.18      -202.61634    
   1822000   181.33486     -18056.369      262.20933    
   1823000   177.10841     -18038.403      257.94057    
   1824000   172.78546     -18083.491      256.82443    
   1825000   183.00908     -18050.692      14.473246    
   1826000   181.26894     -18009.466      705.64147    
   1827000   190.48003     -17998.08       666.89323    
   1828000   171.89824     -18066.295      56.706619    
   1829000   170.98233     -18086.024      62.088256    
   1830000   175.83541     -18097.114     -53.374998    
   1831000   182.97625     -18067.466      104.71337    
   1832000   181.51299     -18053.18      -394.41072    
   1833000   176.22375     -18050.491      63.832167    
   1834000   174.34788     -18118.494      40.318084    
   1835000   170.58677     -18092.075      14.411937    
   1836000   177.37675     -18049.135      77.12712     
   1837000   174.06613     -18051.808      450.23749    
   1838000   171.43218     -18051.396     -354.78537    
   1839000   175.34308     -18082.815      183.75341    
   1840000   173.45708     -18070.713     -1.3590434    
   1841000   172.56578     -18086.457      190.25864    
   1842000   192.03745     -17981.704      394.9946     
   1843000   178.32562     -18076.59      -36.672528    
   1844000   174.77816     -18090.034     -64.292406    
   1845000   171.19422     -18100.208     -356.63432    
   1846000   173.59085     -18056.21      -64.590106    
   1847000   174.85199     -18106.753     -263.80929    
   1848000   183.73823     -18083.754     -92.844639    
   1849000   177.24719     -18054.382      28.273664    
   1850000   175.57555     -18054.168      230.66167    
   1851000   175.03946     -18091.62       227.79001    
   1852000   177.63837     -18064.617     -136.65045    
   1853000   179.71274     -18052.082      98.164155    
   1854000   192.26426     -17979.907     -7.1376683    
   1855000   182.01794     -18027.651      187.20902    
   1856000   173.72842     -18068.243      273.85331    
   1857000   181.21084     -18024.366      564.70683    
   1858000   176.8854      -18041.535      372.06232    
   1859000   167.72144     -18092.083      72.601122    
   1860000   176.67544     -18026.977      499.51244    
   1861000   185.62423     -18015.567     -107.27015    
   1862000   172.68354     -18061.569      217.5923     
   1863000   174.20069     -17999.745      387.82427    
   1864000   184.27955     -17998.881      307.5493     
   1865000   177.31756     -18096.996     -717.30994    
   1866000   175.02479     -18011.672     -108.89244    
   1867000   180.69064     -18000.812     -224.76479    
   1868000   177.07158     -18038.797     -202.34547    
   1869000   169.86795     -18059.977      145.95008    
   1870000   167.54154     -18012.609      135.87783    
   1871000   176.24403     -18038.585      162.34038    
   1872000   177.8478      -18079.257     -420.22108    
   1873000   174.82257     -18068.852     -119.79556    
   1874000   181.64523     -18031.663      412.4015     
   1875000   171.61936     -18039.24       727.81942    
   1876000   174.55693     -18079.145     -346.9251     
   1877000   176.07622     -18077.437     -349.23795    
   1878000   179.05381     -18027.791     -67.74945     
   1879000   181.89449     -18027.391     -453.09572    
   1880000   170.41254     -18059.805     -178.44939    
   1881000   179.5556      -18047.508     -107.79945    
   1882000   182.71891     -18019.047     -273.50244    
   1883000   170.8748      -18063.72       31.206422    
   1884000   164.35346     -18060.118      409.68519    
   1885000   179.98275     -18021.848      272.14584    
   1886000   183.68106     -18024.456     -125.51086    
   1887000   166.81528     -18079.236     -13.163987    
   1888000   170.57538     -18056.02      -312.59118    
   1889000   185.98191     -18026.98       90.930764    
   1890000   176.95987     -18046.086      4.3883694    
   1891000   170.33146     -18085.043     -48.177729    
   1892000   179.95133     -18016.914     -119.09587    
   1893000   183.34037     -18006.449     -127.93703    
   1894000   172.68452     -18049.147      112.01763    
   1895000   174.33157     -18060.836     -199.17814    
   1896000   184.49662     -18000.591     -88.666768    
   1897000   182.43239     -18027.924      258.96755    
   1898000   174.8819      -18052.455     -589.20385    
   1899000   183.45272     -18006.11      -285.99718    
   1900000   177.64042     -17996.9        290.82742    
   1901000   180.08251     -18010.534      151.13457    
   1902000   176.17882     -18025.559      31.197214    
   1903000   179.18658     -18017.413     -150.32081    
   1904000   185.57497     -17986.965      307.44168    
   1905000   178.08455     -18035.58       114.55262    
   1906000   178.04355     -18014.601     -261.13016    
   1907000   185.86922     -17966.116      132.22092    
   1908000   174.86785     -18004.089      377.31156    
   1909000   169.85787     -18039.24       46.059597    
   1910000   171.71666     -18017.266      181.94555    
   1911000   177.96799     -17985.9        294.9501     
   1912000   173.64084     -18033.685      201.71208    
   1913000   178.08433     -18060.642     -175.65854    
   1914000   174.38038     -18046.631     -202.71158    
   1915000   188.3783      -18006.164      90.657514    
   1916000   176.43599     -17996.479      486.28589    
   1917000   179.74865     -18029.977      181.78843    
   1918000   180.63574     -18026.016     -333.75001    
   1919000   184.78402     -17992.95       404.94168    
   1920000   186.43784     -17996.238      325.66993    
   1921000   176.56285     -18000.254      280.72349    
   1922000   176.30849     -18044.913      149.96668    
   1923000   167.50243     -18062.889      180.53856    
   1924000   173.77063     -18047.908     -7.8273463    
   1925000   176.51648     -18028.157      58.924858    
   1926000   174.05256     -17993.72       457.53395    
   1927000   193.32625     -17977.17       138.87588    
   1928000   186.19286     -18003.637     -112.65503    
   1929000   177.97905     -18022.111      333.4471     
   1930000   178.97388     -18025.546      345.42636    
   1931000   177.9216      -17996.433     -14.649954    
   1932000   176.21202     -18041.83       334.7163     
   1933000   171.66534     -18055.853     -238.93207    
   1934000   171.58885     -18074.075      126.73367    
   1935000   183.26144     -18015.701     -15.446639    
   1936000   177.34697     -18009.658      281.57741    
   1937000   185.054       -17976.721     -406.81079    
   1938000   179.69927     -18012.816     -138.21811    
   1939000   170.73123     -18030.424      237.39095    
   1940000   166.35144     -18075.146     -28.316731    
   1941000   180.14228     -18024.425      0.081449007  
   1942000   179.83377     -18003.143     -238.07514    
   1943000   173.89518     -17998.945      153.80847    
   1944000   170.76937     -18058.468      30.295226    
   1945000   167.42821     -18053.386     -60.136653    
   1946000   175.59248     -18035.568     -36.542073    
   1947000   180.34367     -18006.973      304.23518    
   1948000   175.92475     -18022.142      133.06365    
   1949000   179.2721      -18020.521      2.6503476    
   1950000   181.89792     -17986.382      420.95632    
   1951000   183.79347     -17974.408      358.98742    
   1952000   175.28131     -18004.252     -193.25174    
   1953000   177.45847     -18023.001      210.90386    
   1954000   174.45848     -18064.143      192.64287    
   1955000   166.1328      -18073.297     -0.45723904   
   1956000   176.73222     -18019.878      410.71835    
   1957000   173.23095     -18013.761      421.98815    
   1958000   171.39691     -18069.235     -489.63045    
   1959000   179.25355     -18047.308     -114.23201    
   1960000   179.01944     -17995.603      849.6501     
   1961000   174.76568     -18020.423      428.98976    
   1962000   178.95819     -18060.436     -149.19543    
   1963000   174.16299     -18056.313     -329.30922    
   1964000   181.83224     -18010.021     -284.05852    
   1965000   182.45015     -17991.217      328.07425    
   1966000   175.85135     -18037.314     -25.025589    
   1967000   173.93863     -18057.813      107.63229    
   1968000   177.39839     -18047.026      157.40597    
   1969000   171.0851      -18016.313      529.29681    
   1970000   176.20938     -18046.81       151.89207    
   1971000   170.30707     -18070.874     -505.57883    
   1972000   179.97512     -18033.049      160.72892    
   1973000   183.95652     -18021.587     -21.172215    
   1974000   167.63756     -18035.762      113.56753    
   1975000   178.45619     -17995.832      278.42175    
   1976000   181.99911     -17987.302      38.913618    
   1977000   178.99202     -18041.788     -121.44676    
   1978000   175.73344     -18057.944      59.663164    
   1979000   193.48994     -18011.724     -220.07985    
   1980000   185.30376     -18022.723     -173.54819    
   1981000   175.47872     -18031.28       593.51113    
   1982000   176.61161     -18031.044     -17.481126    
   1983000   174.31355     -17967.958      629.8436     
   1984000   178.45825     -18014.413     -25.65281     
   1985000   183.33178     -17989.167      73.665784    
   1986000   182.82232     -17995.52      -11.804471    
   1987000   181.41886     -18023.291     -181.61534    
   1988000   178.23309     -18035.759      16.755197    
   1989000   171.65826     -18011.731      548.37007    
   1990000   192.41221     -17962.371      298.74363    
   1991000   184.53213     -17997.084      518.52724    
   1992000   180.79176     -18028.722      410.67924    
   1993000   178.92102     -18020.966      27.963616    
   1994000   178.4828      -18025.421      357.72415    
   1995000   180.84854     -18001.198      146.15816    
   1996000   179.08861     -18043.269      227.06247    
   1997000   172.6862      -18058.975      87.602918    
   1998000   176.21894     -18029.483      521.45744    
   1999000   175.37092     -18012.631      408.70448    
   2000000   185.39223     -18035.615     -336.45624    
   2001000   168.8364      -18074.037      71.095745    
   2002000   171.56569     -18063.641     -180.10234    
   2003000   173.66483     -18035.097      10.350361    
   2004000   175.78038     -18030.661     -26.216935    
   2005000   180.33704     -17995.255     -140.62805    
   2006000   184.8883      -17968.668      352.20143    
   2007000   181.76084     -18025.321     -97.700924    
   2008000   183.55861     -18034.628      217.54539    
   2009000   169.47658     -18065.046     -292.8467     
   2010000   189.16256     -18017.809     -176.46129    
   2011000   189.37589     -17985.93       146.99284    
   2012000   180.29419     -18003.314      354.66302    
   2013000   172.48602     -18039.313      96.614715    
   2014000   174.12165     -18010.628      716.9786     
   2015000   181.26257     -18024.887     -56.846542    
   2016000   167.47831     -18055.957      195.68071    
   2017000   186.0833      -17965.929      579.1908     
   2018000   169.18377     -18043.319      32.728323    
   2019000   182.30599     -18041.245      219.29902    
   2020000   181.50729     -17978.427      404.77355    
   2021000   179.76454     -17980.077      111.65544    
   2022000   181.09171     -17995.261     -33.094713    
   2023000   178.90064     -18022.104     -457.16695    
   2024000   177.10512     -18056.604      561.79562    
   2025000   172.17911     -18061.181     -81.469426    
   2026000   174.32999     -18029.726      22.836215    
   2027000   178.41815     -18028.24      -149.45806    
   2028000   175.496       -18068.464      114.45855    
   2029000   172.4027      -18060.635      803.3892     
   2030000   178.38661     -18028.739      59.23538     
   2031000   178.81618     -18028.066      170.33523    
   2032000   189.35689     -18004.317     -133.8602     
   2033000   175.31364     -18014.723      325.79171    
   2034000   165.04663     -18095.201     -198.56825    
   2035000   183.13644     -18032.218      191.81693    
   2036000   182.98491     -18005.724      55.009956    
   2037000   187.9392      -18006.555     -285.13473    
   2038000   188.82538     -17984.862      462.21202    
   2039000   178.22127     -18019.255     -119.92021    
   2040000   171.88835     -18047.124      80.096703    
   2041000   180.76952     -18045.949      214.99897    
   2042000   194.90579     -17955.229      208.00502    
   2043000   171.08132     -18076.58       328.94765    
   2044000   173.26914     -18069.473     -517.24407    
   2045000   194.05877     -18002.091      130.68566    
   2046000   178.07003     -18045.114      152.45169    
   2047000   181.443       -18052.197      143.4253     
   2048000   164.29506     -18072.105     -75.919871    
   2049000   178.4689      -18030.727      129.60185    
   2050000   181.88446     -18068.665      273.40988    
   2051000   179.17155     -18011.99       408.80142    
   2052000   176.29272     -18015.066      223.75749    
   2053000   181.7158      -18041.953     -536.43942    
   2054000   174.99171     -18057.311     -126.77808    
   2055000   178.23685     -18061.521     -149.2606     
   2056000   183.28078     -18022.512      130.65455    
   2057000   178.97432     -18075.589      166.39159    
   2058000   181.65349     -18063.94      -541.76765    
   2059000   184.42807     -18027.654      358.59836    
   2060000   178.35798     -18084.537     -388.31587    
   2061000   175.2791      -18011.021      367.26       
   2062000   180.55495     -18033.424      16.143551    
   2063000   176.53828     -18045.112      121.31646    
   2064000   181.46218     -18034.933      80.018058    
   2065000   179.67358     -18001.579      19.182293    
   2066000   180.1994      -17996.584      132.65964    
   2067000   184.7716      -18033.691     -338.05356    
   2068000   181.76464     -18055.032     -198.6901     
   2069000   171.11321     -18069.077     -170.0044     
   2070000   176.18573     -18017.839      396.18212    
   2071000   174.94002     -17983.702      678.64625    
   2072000   182.72686     -18015.661     -313.67719    
   2073000   169.98178     -18070.181     -423.01002    
   2074000   179.23738     -18047.714     -149.1226     
   2075000   184.01878     -17987.991      588.54419    
   2076000   184.41015     -18006.194      79.046992    
   2077000   176.84397     -18056.458     -10.625852    
   2078000   180.02174     -18063.907     -643.35988    
   2079000   177.59745     -18031.419      416.48281    
   2080000   172.60669     -18088.931     -70.657547    
   2081000   175.89865     -18064.644     -147.81556    
   2082000   176.66618     -18018.018      364.70638    
   2083000   188.52652     -18005.654      122.24338    
   2084000   178.23957     -18043.286      80.218328    
   2085000   173.77588     -18087.171     -366.351      
   2086000   165.72694     -18063.295      195.60494    
   2087000   175.68451     -18038.305      36.853683    
   2088000   182.7801      -18019.653     -255.4789     
   2089000   174.76607     -18028.424     -179.75552    
   2090000   176.48303     -18067.431     -407.62939    
   2091000   175.78675     -18045.225      135.76267    
   2092000   178.98389     -18030.486     -78.477631    
   2093000   174.66908     -18005.122      375.69768    
   2094000   166.02967     -18088.242     -72.90367     
   2095000   175.26796     -18020.148     -222.39122    
   2096000   179.33454     -18020.79       478.40419    
   2097000   179.89652     -18069.142     -114.88643    
   2098000   173.17497     -18073.053      175.08227    
   2099000   175.16589     -18001.042      40.956209    
   2100000   178.783       -18013.695     -368.99798    
   2101000   170.46076     -18076.638      163.30806    
   2102000   176.05574     -18073.302     -83.073762    
   2103000   183.54339     -18027.243     -230.29642    
   2104000   179.87866     -18019.466      140.98122    
   2105000   178.30492     -18047.801      170.93276    
   2106000   167.6751      -18097.204      24.807839    
   2107000   178.40469     -17996.879      150.49149    
   2108000   181.47237     -17994.93      -17.365447    
   2109000   185.00562     -18011.365      787.77594    
   2110000   173.7949      -18022.641      233.41253    
   2111000   186.50123     -17989.464      224.29404    
   2112000   178.84103     -18008.248      522.65529    
   2113000   170.51003     -18032.037      38.170992    
   2114000   165.64027     -18057.472     -172.44964    
   2115000   179.34036     -18022.271      65.876082    
   2116000   191.87808     -18002.799      126.57431    
   2117000   192.2297      -18004.446      288.07406    
   2118000   187.52452     -18000.505      136.25784    
   2119000   177.54545     -18028.966      86.867488    
   2120000   189.77018     -18012.558      295.46821    
   2121000   183.88581     -17986.753     -66.232863    
   2122000   185.60205     -18013.258      239.77511    
   2123000   175.3326      -18037.483      96.941039    
   2124000   181.91937     -18004.859      135.42305    
   2125000   176.7819      -18004.047      200.29423    
   2126000   188.22314     -18009.09      -4.4835563    
   2127000   173.05722     -18054.83       181.94229    
   2128000   182.48149     -18009.987      218.06034    
   2129000   177.03593     -18023.362      0.64425389   
   2130000   177.55099     -18089.782      9.4445321    
   2131000   179.09621     -18034.564     -206.16704    
   2132000   180.11864     -17997.806      110.26613    
   2133000   163.66683     -18100.891     -238.04538    
   2134000   174.25358     -18041.108     -34.384724    
   2135000   176.84211     -18019.475      56.989375    
   2136000   182.04858     -18044.878     -213.95833    
   2137000   172.16923     -18056.453     -30.558497    
   2138000   165.92642     -18090.304     -295.87051    
   2139000   175.47296     -18020.293      15.032133    
   2140000   182.54956     -18004.191     -116.2279     
   2141000   169.12276     -18059.132      436.78027    
   2142000   174.12023     -18060.63      -78.763482    
   2143000   186.49851     -18023.96       15.09466     
   2144000   191.29188     -17973.495      151.00668    
   2145000   178.77426     -17987.322      482.13934    
   2146000   175.18484     -18017.713      380.14963    
   2147000   176.4241      -18024.692      389.31081    
   2148000   174.48518     -18042.478     -183.25671    
   2149000   171.67181     -18007.134      379.76123    
   2150000   186.08323     -18024.512     -255.8506     
   2151000   167.92181     -18039.818      375.51289    
   2152000   168.22345     -18079.565      264.01097    
   2153000   174.80823     -18070.995      31.683099    
   2154000   180.49429     -18049.132      193.68487    
   2155000   183.9447      -18013.411     -73.114648    
   2156000   184.76643     -18005.999      134.19643    
   2157000   177.8883      -18032.605      148.26178    
   2158000   177.76255     -17996.919      407.2582     
   2159000   180.27445     -17976.974     -49.423666    
   2160000   174.3037      -18049.38       27.955248    
   2161000   174.53443     -18071.302      41.393241    
   2162000   178.70189     -18039.997     -391.17554    
   2163000   180.01488     -18012.677      240.71927    
   2164000   169.04918     -18063.623      327.39841    
   2165000   176.24756     -18080.031      402.11824    
   2166000   184.9797      -18018.265      143.49011    
   2167000   179.8509      -18038.096     -26.408125    
   2168000   177.59537     -18074.362      71.253011    
   2169000   181.23071     -18061.357      138.59311    
   2170000   180.16427     -18037.711     -43.614459    
   2171000   179.44688     -18029.25      -18.977526    
   2172000   172.18816     -18064.572     -158.25291    
   2173000   164.84061     -18074.71       6.1646357    
   2174000   176.41475     -18030.791      251.37903    
   2175000   176.16024     -18016.378      195.17144    
   2176000   167.29643     -18062.061      122.92737    
   2177000   167.77764     -18055.678     -40.687355    
   2178000   171.14557     -18049.971      158.55338    
   2179000   185.35401     -18010.178     -141.09409    
   2180000   180.93779     -17966.443      317.86016    
   2181000   182.25936     -18024.623     -89.467754    
   2182000   167.68712     -18053.514      179.23008    
   2183000   178.9357      -18048.499      136.55326    
   2184000   183.16099     -18013.756     -166.64228    
   2185000   178.57372     -18012.424      251.67717    
   2186000   171.02896     -18017.752      497.12132    
   2187000   175.71978     -18044.554     -143.21835    
   2188000   179.69555     -18049.652     -532.58306    
   2189000   187.06398     -17971.29       146.28925    
   2190000   177.55507     -18054.98      -80.31663     
   2191000   177.54572     -18069.264     -125.3987     
   2192000   188.01359     -18029.395     -235.66229    
   2193000   180.67843     -18029.403      192.7801     
   2194000   186.17074     -18021.775      63.741992    
   2195000   179.98941     -18029.644     -242.14839    
   2196000   178.6972      -18049.552      502.02262    
   2197000   168.92114     -18076.226      467.33732    
   2198000   172.44866     -18043.719      286.26204    
   2199000   178.17852     -18033.485      367.35109    
   2200000   182.57561     -18059.381      50.554919    
   2201000   182.24288     -18032.386      69.191963    
   2202000   175.7167      -18065.345     -9.2783677    
   2203000   170.30136     -18055.53       194.21898    
   2204000   171.98639     -18050.12       666.88441    
   2205000   182.45479     -17971.032      1092.2853    
   2206000   178.05009     -18056.002      41.434505    
   2207000   176.44617     -18046.235      136.49501    
   2208000   179.73273     -18036.38      -217.61063    
   2209000   182.20365     -17991.331      637.2178     
   2210000   179.18426     -18010.341      8.146816     
   2211000   176.84206     -18040.712      502.09024    
   2212000   170.46615     -18068.758      282.49492    
   2213000   166.5573      -18095.696      32.557083    
   2214000   182.23426     -18040.972     -278.4577     
   2215000   183.49        -18023.391      168.05537    
   2216000   173.91193     -18033.953      272.31605    
   2217000   166.22987     -18066.221      656.24914    
   2218000   178.14593     -18059.076      343.37248    
   2219000   182.46612     -18039.028     -185.39422    
   2220000   186.77727     -17986.709      375.40571    
   2221000   184.04959     -18009.785     -99.640119    
   2222000   170.66078     -18050.256     -112.28571    
   2223000   178.10274     -18038.109      424.24512    
   2224000   174.33849     -18026.159      18.231098    
   2225000   184.9363      -18027.082      397.58914    
   2226000   184.03538     -18021.321      136.02958    
   2227000   174.87642     -18040.903     -234.69133    
   2228000   172.27139     -18037.961      289.53531    
   2229000   171.91349     -18062.789     -311.32935    
   2230000   170.65344     -18068.168     -27.117222    
   2231000   176.25991     -18062.437     -265.30022    
   2232000   178.55254     -18018.959      79.15309     
   2233000   185.56463     -18025.043     -102.21901    
   2234000   182.53557     -18058.048     -332.9368     
   2235000   179.17396     -18072.814      100.10934    
   2236000   170.20751     -18040.741      366.29302    
   2237000   177.89298     -18017.059      273.1959     
   2238000   169.53089     -18073.104      84.117877    
   2239000   177.63282     -18051.18      -76.593897    
   2240000   176.55329     -18021.927      421.33932    
   2241000   172.40952     -18047.333      571.12016    
   2242000   177.43355     -18033.509      410.32359    
   2243000   175.2923      -18018.606      771.5739     
   2244000   183.91672     -17970.395      465.13466    
   2245000   180.56677     -18018.282      119.78821    
   2246000   177.28093     -18030.724      439.99341    
   2247000   171.21727     -18076.993      217.93363    
   2248000   174.84721     -18064.149      645.41715    
   2249000   177.22396     -18026.047      306.09852    
   2250000   180.20287     -18023.665     -2.2359494    
   2251000   179.97329     -18033.431      2.0909605    
   2252000   171.59634     -18083.144     -82.279948    
   2253000   173.84579     -18022.697      273.20589    
   2254000   184.74518     -17998.609      512.71856    
   2255000   186.30479     -17995.087     -132.99913    
   2256000   174.72411     -18018.429      429.93302    
   2257000   174.78939     -18053.572      306.8422     
   2258000   180.60679     -18047.027     -113.51491    
   2259000   183.98233     -17988.535      12.774817    
   2260000   180.6569      -17993.789      430.40775    
   2261000   172.39632     -18048.064      183.08123    
   2262000   179.09539     -18016.832      60.607602    
   2263000   174.46468     -18024.391      49.575877    
   2264000   171.38773     -18075.558     -230.64497    
   2265000   177.48911     -18064.963     -158.90414    
   2266000   177.83        -18015.193      245.45362    
   2267000   175.33194     -18021.156      200.98217    
   2268000   163.18771     -18063.203      390.46079    
   2269000   184.46867     -18035.517     -142.48099    
   2270000   188.9281      -17994.667     -406.91856    
   2271000   181.49677     -18001.595      630.52389    
   2272000   183.27393     -18029.085      425.27552    
   2273000   183.15776     -18030.606      428.98124    
   2274000   169.28283     -18086.954      183.45265    
   2275000   173.87171     -18058.324      270.69045    
   2276000   180.72702     -18032.42      -191.55667    
   2277000   173.22312     -18013.452      518.48057    
   2278000   184.35322     -17994.384     -22.809119    
   2279000   187.57128     -17979.459      362.04252    
   2280000   182.97391     -18027.18      -224.45206    
   2281000   168.81979     -18044.545     -366.84861    
   2282000   170.73114     -18043.849     -470.48739    
   2283000   187.56654     -17984.904     -98.46589     
   2284000   187.46881     -17993.843      308.91527    
   2285000   183.16336     -18005.618      295.373      
   2286000   179.22929     -18051.369      279.93246    
   2287000   175.31975     -18066.851     -121.14622    
   2288000   168.85114     -18089.317      253.59178    
   2289000   184.82625     -18048.388      346.50191    
   2290000   180.43796     -18006.325      232.77083    
   2291000   171.07032     -18071.442      130.05741    
   2292000   169.87143     -18085.767     -61.205136    
   2293000   172.18688     -18054.807     -424.70506    
   2294000   178.10583     -18048.872      148.5859     
   2295000   182.49249     -18030.949      137.05703    
   2296000   172.29029     -18070.952      79.129714    
   2297000   181.09467     -18053.78       31.82869     
   2298000   181.90842     -18005.568      283.05828    
   2299000   184.46646     -17993.624      197.86078    
   2300000   175.34745     -18028.762      72.550816    
   2301000   180.03377     -18064.389      72.837865    
   2302000   173.45799     -18072.297      224.49693    
   2303000   176.13707     -18009.76       281.17035    
   2304000   184.93227     -18023.678      483.23448    
   2305000   176.17994     -18026.532      490.23352    
   2306000   170.85887     -18050.599      402.26903    
   2307000   178.02261     -18038.296      391.72118    
   2308000   182.85916     -18021.479      302.77946    
   2309000   177.47173     -18028.743      531.29331    
   2310000   163.02392     -18069.339     -33.636593    
   2311000   181.70243     -18060.834     -367.1466     
   2312000   176.28144     -18040.67      -139.63393    
   2313000   180.95083     -18017.531      248.84616    
   2314000   183.52455     -18028.455     -142.61005    
   2315000   175.58648     -18034.117      383.25333    
   2316000   178.55691     -18051.57      -114.06705    
   2317000   179.66154     -18045.078      51.133354    
   2318000   185.5619      -18027.308      102.203      
   2319000   181.44246     -18011.158      185.90917    
   2320000   186.63601     -17988.639      410.92974    
   2321000   180.78764     -18004.147      217.24816    
   2322000   171.8231      -18046.969      242.74808    
   2323000   173.84877     -18047.612      429.07483    
   2324000   191.82434     -17987.776      454.3696     
   2325000   182.86802     -18007.394      116.37866    
   2326000   179.45328     -18018.004      358.81996    
   2327000   180.19898     -18039.632     -180.93519    
   2328000   181.39864     -18021.809     -70.223548    
   2329000   167.12367     -18073.652      271.64508    
   2330000   169.48307     -18076.027     -175.12671    
   2331000   183.76199     -18049.477     -41.188832    
   2332000   191.70905     -17953.176      431.76195    
   2333000   174.38012     -18057.108     -149.99128    
   2334000   178.11372     -18014.127      259.77557    
   2335000   184.84541     -18016.77       190.27879    
   2336000   172.04523     -18081.429      123.60744    
   2337000   178.54731     -18072.135      67.4338      
   2338000   181.63749     -18031.65       56.16872     
   2339000   181.72961     -18001.996      543.85659    
   2340000   180.90714     -17991.283      210.84653    
   2341000   181.40248     -17986.972      563.21912    
   2342000   176.47655     -18026.189      290.96524    
   2343000   183.81722     -18027.772      135.5745     
   2344000   171.30651     -18055.112      421.78008    
   2345000   173.48915     -18041.928      309.90353    
   2346000   178.19554     -18034.584      167.38886    
   2347000   183.28041     -17990.503      260.69956    
   2348000   181.22238     -17993.893      361.5851     
   2349000   182.32178     -18024.761      60.758917    
   2350000   177.50517     -18046.015      159.55022    
   2351000   171.1538      -18021.689      143.30111    
   2352000   192.70744     -17966.63       329.49738    
   2353000   185.12461     -17981.763      414.48492    
   2354000   182.43179     -18005.567      59.618429    
   2355000   179.25379     -18014.427      251.03894    
   2356000   177.9915      -18045.871      98.074954    
   2357000   168.39619     -18089.274     -71.268243    
   2358000   182.43425     -18022.332      277.15308    
   2359000   175.62046     -18013.493      296.9047     
   2360000   172.69601     -18035.509      305.3302     
   2361000   173.54913     -18097.523      69.144062    
   2362000   176.41217     -18066.589     -567.02874    
   2363000   173.76166     -18050.907      432.32806    
   2364000   187.19281     -18029.698      103.45819    
   2365000   171.07857     -18064.682      180.31565    
   2366000   178.77099     -18049.147      106.43252    
   2367000   179.82536     -18013.477      221.41324    
   2368000   174.70553     -18047.453      18.369585    
   2369000   179.04309     -18058.949     -150.27454    
   2370000   177.28415     -18056.479      318.17277    
   2371000   177.21894     -18026.043     -42.679484    
   2372000   183.45987     -18018.565     -208.51625    
   2373000   173.40543     -18054.715     -98.182789    
   2374000   175.99998     -18067.246      155.48684    
   2375000   173.00425     -18072.641      126.93463    
   2376000   173.19957     -18041.699      582.72423    
   2377000   181.45596     -18006.08       172.63856    
   2378000   178.58889     -18019.588      625.73894    
   2379000   177.59524     -18050.758     -6.8172074    
   2380000   181.88414     -18017.09       276.47433    
   2381000   188.14373     -18008.869      14.309812    
   2382000   172.82816     -18069.65      -477.16071    
   2383000   175.24763     -18056.119      197.50189    
   2384000   181.39605     -17999.461      488.26543    
   2385000   181.40843     -18019.846      234.11457    
   2386000   174.04303     -18042.729     -130.81262    
   2387000   169.19241     -18063.117      407.8879     
   2388000   180.37671     -18027.82      -69.314667    
   2389000   172.80365     -18027.801      831.13192    
   2390000   184.10697     -18014.107     -194.58092    
   2391000   181.09056     -18033.96      -369.76013    
   2392000   170.10963     -18070.967     -260.89051    
   2393000   185.22763     -18056.747      336.7178     
   2394000   174.01399     -18021.165      728.60339    
   2395000   182.593       -18018.826      95.192273    
   2396000   171.26462     -18047.076      343.02828    
   2397000   177.05836     -18055.298     -183.75168    
   2398000   181.91797     -18020.071     -29.769009    
   2399000   182.41259     -18017.473      426.2329     
   2400000   179.00794     -18012.345      383.81991    
   2401000   172.52808     -18042.864      308.4152     
   2402000   178.96369     -18042.421      220.57761    
   2403000   175.63255     -18025.657      354.79965    
   2404000   178.95314     -18028.637      269.78642    
   2405000   187.7811      -18016.084      516.56162    
   2406000   171.78128     -18050.042      151.83103    
   2407000   175.66361     -18071.349     -121.12107    
   2408000   183.07761     -18031.053      323.61139    
   2409000   179.00298     -18020.089      334.21177    
   2410000   186.30878     -18016.455      187.40244    
   2411000   180.22672     -18041.333      133.08799    
   2412000   174.07689     -18058.79      -27.608974    
   2413000   174.72881     -18045.816      418.97022    
   2414000   176.15879     -18020.276      830.58152    
   2415000   181.50236     -17987.77       115.81828    
   2416000   187.2773      -18009.842      313.73632    
   2417000   179.01802     -18021.032      554.16172    
   2418000   177.34675     -18020.097      637.12799    
   2419000   175.38525     -18018.373      534.04353    
   2420000   179.7189      -18058.372      169.06976    
   2421000   170.44412     -18071.542      198.06013    
   2422000   173.39992     -18050.106      241.35311    
   2423000   179.03479     -18017.287     -43.32879     
   2424000   183.2886      -17977.752      421.81622    
   2425000   180.26477     -18023.536     -71.195118    
   2426000   172.44172     -18039.408     -176.0621     
   2427000   178.33595     -18049.17      -59.616447    
   2428000   176.36346     -18042.231     -14.149694    
   2429000   178.15096     -18035.733     -57.78633     
   2430000   175.96255     -18031.007      157.21219    
   2431000   182.17144     -18046.493     -259.27126    
   2432000   181.1022      -18018.878      206.07186    
   2433000   186.5247      -17975.005      282.6518     
   2434000   173.85845     -18025.161      296.84384    
   2435000   170.28722     -18048.387      7.3021828    
   2436000   167.80587     -18058.293      310.34941    
   2437000   171.73626     -18024.988     -226.26437    
   2438000   174.84559     -18078.175     -306.59771    
   2439000   172.62231     -18087.733     -64.571588    
   2440000   178.87048     -18030.927     -8.328239     
   2441000   181.0983      -18007.681      172.68128    
   2442000   187.44226     -18001.942      100.69655    
   2443000   179.23671     -18038.797     -120.3919     
   2444000   180.33511     -18041.166      363.99085    
   2445000   178.35055     -17984.111      893.43715    
   2446000   179.74983     -18059.916      306.58828    
   2447000   176.38818     -18067.674     -125.31234    
   2448000   185.26699     -18033.934      92.19264     
   2449000   186.38492     -18013.351      73.52727     
   2450000   177.59116     -18029.263      211.17081    
   2451000   169.38213     -18087.216      371.20766    
   2452000   173.09567     -18046.254      454.83588    
   2453000   182.66204     -18025.383     -65.048961    
   2454000   178.24007     -18043.12       68.411819    
   2455000   170.11128     -18076.82       3.6865535    
   2456000   170.979       -18043.068      237.38516    
   2457000   183.95818     -18019.873      239.59278    
   2458000   169.76614     -18058.87      -28.504305    
   2459000   171.74114     -18066.826     -73.094481    
   2460000   185.98867     -18037.879     -171.88025    
   2461000   178.51474     -18011.383      458.97028    
   2462000   171.67791     -18061.034      32.171088    
   2463000   179.43119     -18034.886     -300.33255    
   2464000   181.27927     -17995.048     -2.9342524    
   2465000   179.99042     -17986.459      587.79015    
   2466000   178.20035     -18000.803      671.52106    
   2467000   172.50978     -18008.763      432.14953    
   2468000   178.17163     -18014.165      516.39545    
   2469000   181.23848     -18021.101      103.94669    
   2470000   177.64947     -17984.476      513.95489    
   2471000   177.18703     -17960.067      859.78681    
   2472000   178.8594      -17997.264      244.81144    
   2473000   179.777       -18019.221      227.04071    
   2474000   179.34739     -17973.715      375.28489    
   2475000   182.43857     -17950.953      1111.7036    
   2476000   179.76932     -17979.118      727.34011    
   2477000   175.22521     -18021.705      66.642325    
   2478000   171.95728     -18019.184      597.29639    
   2479000   182.41835     -17942.587      652.92076    
   2480000   177.0915      -18011.643      708.15564    
   2481000   174.90957     -18023.29       302.30886    
   2482000   184.28284     -17996.213      975.24879    
   2483000   177.63805     -17994.012      240.73792    
   2484000   174.8785      -17984.685      363.67481    
   2485000   181.03685     -17992.518      356.1344     
   2486000   172.66337     -18004.793      388.78965    
   2487000   173.54916     -18005.488      678.94434    
   2488000   176.76166     -17990.197      208.80204    
   2489000   178.4078      -17985.225      736.66193    
   2490000   170.74041     -18002.988      501.74809    
   2491000   177.6658      -18015.628      399.56925    
   2492000   184.84738     -17966.62       737.71251    
   2493000   171.68544     -17988.892      463.55309    
   2494000   177.32891     -18032.617      130.26197    
   2495000   176.21502     -18002.843      705.35618    
   2496000   177.41389     -17991.905      751.7815     
   2497000   188.31202     -17958.929      800.8003     
   2498000   188.18952     -17968.36       347.89275    
   2499000   179.25495     -17982.151      513.88986    
   2500000   183.54762     -17978.768      531.14386    
   2501000   176.18016     -18003.814      751.55826    
   2502000   177.39993     -18007.123      309.26081    
   2503000   181.92489     -17973.177      914.35114    
   2504000   175.55989     -17997.482      582.45321    
   2505000   174.75159     -18020.261      384.91362    
   2506000   194.38147     -17947.402      639.32322    
   2507000   185.36794     -17978.862      963.48765    
   2508000   176.78521     -18011.238      164.34024    
   2509000   169.64773     -18028.96       460.98474    
   2510000   180.01014     -17997.63       495.73651    
   2511000   177.5836      -18021.995      716.71332    
   2512000   186.73835     -17954.235      795.98148    
   2513000   178.96444     -17978.592      812.89527    
   2514000   183.30322     -18000.624      569.58637    
   2515000   177.02618     -18030.005      116.31541    
   2516000   170.04354     -18033.476      163.83885    
   2517000   183.96959     -18014.07       175.31457    
   2518000   166.89813     -18000.813      968.56131    
   2519000   177.4292      -17976.817      786.8471     
   2520000   162.79141     -18056.45       702.34187    
   2521000   173.31779     -18031.946      130.95122    
   2522000   172.08851     -18001.384      390.86597    
   2523000   176.01852     -17982.237      748.16451    
   2524000   171.98837     -18007.471      716.53943    
   2525000   181.56847     -17958.843      502.46268    
   2526000   180.46074     -17971.784      1065.9106    
   2527000   182.25225     -17990.325      215.28578    
   2528000   175.09135     -18017.762      565.61951    
   2529000   170.41714     -18027.65       443.55968    
   2530000   166.87691     -18056.936      436.71942    
   2531000   172.79154     -18046.447      98.941281    
   2532000   187.38823     -18000.336      165.36252    
   2533000   178.49327     -18010.731      393.1278     
   2534000   185.41705     -17988.202      329.82366    
   2535000   183.7273      -17962.977      412.45601    
   2536000   176.94082     -18026.308      658.53617    
   2537000   169.46337     -18037.708      543.5103     
   2538000   187.24659     -17946.519      285.81257    
   2539000   180.11041     -18005.564      883.29575    
   2540000   173.03266     -18006.625      458.27522    
   2541000   184.12739     -17987.453      308.54546    
   2542000   174.2445      -17985.794      513.38401    
   2543000   180.51207     -17978.3        597.27666    
   2544000   180.10355     -17997.632      411.86925    
   2545000   181.30271     -18033.501      89.87415     
   2546000   174.98814     -18040.227      510.73352    
   2547000   177.04495     -18050.332      324.54397    
   2548000   182.83433     -17991.703      667.74404    
   2549000   188.90826     -17993.97       347.69038    
   2550000   182.70447     -18007.102      428.15225    
   2551000   166.85727     -18068.633      486.56918    
   2552000   181.71598     -17991.17       702.07363    
   2553000   183.07041     -17979.653      567.65537    
   2554000   172.25643     -18007.518      536.51867    
   2555000   178.37895     -18048.592      518.31801    
   2556000   167.84044     -18059.23       377.69744    
   2557000   179.08739     -18006.4        804.89215    
   2558000   178.95778     -17993.62       541.65627    
   2559000   178.31076     -18020.049      711.0144     
   2560000   171.0845      -18047.693      603.73398    
   2561000   187.52197     -17990.133      627.98409    
   2562000   175.24761     -17993.627      482.59467    
   2563000   174.87992     -18021.867      81.756844    
   2564000   166.67963     -18017.837      530.50616    
   2565000   180.7409      -17985.689      489.47257    
   2566000   179.89606     -17994.125      470.79085    
   2567000   160.85829     -18084.1        250.43746    
   2568000   183.0007      -17989.113      403.44451    
   2569000   180.63116     -17979.904      707.58412    
   2570000   183.70111     -17963.558      900.3925     
   2571000   175.46214     -18001.638      424.76278    
   2572000   179.41606     -18050.421      408.56508    
   2573000   184.03538     -18022.769      280.42605    
   2574000   182.48197     -17972.729      398.15316    
   2575000   179.37325     -17991.358      397.33524    
   2576000   168.14792     -18010.082      722.17297    
   2577000   174.21145     -17986.231      463.18256    
   2578000   185.46282     -17972.83       833.02859    
   2579000   178.19118     -17978.22       416.07859    
   2580000   177.40044     -18021.121      539.25097    
   2581000   171.59474     -18016.818      552.99805    
   2582000   174.31162     -17992.466      410.95399    
   2583000   184.50179     -17941.93       855.14512    
   2584000   175.49499     -18000.797      368.97494    
   2585000   176.93706     -18018.904      483.4217     
   2586000   181.0601      -18003.649      392.44533    
   2587000   185.90094     -17963.771      844.33725    
   2588000   178.24756     -18003.055      456.80652    
   2589000   168.62133     -18042.222     -75.220333    
   2590000   174.77286     -18040.768     -153.88259    
   2591000   174.46212     -18017.037      694.31829    
   2592000   174.40578     -18009.486      588.74013    
   2593000   195.60313     -17985.772      365.14504    
   2594000   168.34649     -18032.225      99.310424    
   2595000   168.82002     -18058.383      66.124171    
   2596000   177.44824     -18008.001      38.946777    
   2597000   179.10074     -17999.378      566.36073    
   2598000   178.6286      -17961.217      306.52164    
   2599000   176.72953     -18016.237      534.54503    
   2600000   177.578       -18024.138      457.42195    
   2601000   180.33364     -17993.88       686.50264    
   2602000   185.91159     -17962.404      606.992      
   2603000   176.47783     -18021.303      871.20544    
   2604000   187.61539     -17988.215      702.74624    
   2605000   184.97097     -17942.328      235.7346     
   2606000   179.1423      -17992.253      805.17617    
   2607000   180.47889     -18026.886     -71.908866    
   2608000   182.62471     -17914.643      953.57561    
   2609000   179.91878     -17959.956      570.6739     
   2610000   180.62303     -17996.406      554.41334    
   2611000   175.49869     -18009.691      114.26769    
   2612000   184.57297     -17925.481      467.9198     
   2613000   189.26167     -17964.954      466.62038    
   2614000   179.39142     -17994.184      349.42812    
   2615000   184.27422     -17946.224      764.29152    
   2616000   178.37446     -17973.266      639.63234    
   2617000   170.08042     -17977.403      751.05184    
   2618000   176.47716     -18014.744      155.57594    
   2619000   166.23357     -18050.433      208.22931    
   2620000   182.8012      -17970.129      856.59108    
   2621000   172.2569      -18001.769      611.25993    
   2622000   168.21453     -17999.367      241.15055    
   2623000   181.42858     -17978.071      657.56528    
   2624000   182.68439     -17950.573      783.45477    
   2625000   181.76051     -17997.763      144.10841    
   2626000   172.88774     -18010.545      415.47818    
   2627000   171.87983     -18009.662      94.875504    
   2628000   183.03639     -18003.582      238.40428    
   2629000   186.78834     -17970.206      471.6762     
   2630000   174.04166     -18037.572      493.15678    
   2631000   175.94638     -18033.95       256.41979    
   2632000   174.85705     -17999.883      224.88699    
   2633000   176.50658     -17977.437      334.55237    
   2634000   181.24188     -18004.307      197.99261    
   2635000   174.5971      -17994.273      941.03681    
   2636000   165.71654     -18069.186      162.34907    
   2637000   179.81834     -18016.421      287.29913    
   2638000   183.15517     -18008.28       563.60463    
   2639000   187.07293     -17968.621      574.19279    
   2640000   191.30502     -17955.495      574.58545    
   2641000   182.13574     -18017.187      564.34068    
   2642000   174.62927     -18037.438      221.75452    
   2643000   184.04019     -17997.855      207.68271    
   2644000   174.82838     -17990.526      662.80158    
   2645000   175.60235     -18021.107      310.90899    
   2646000   163.91814     -18065.615     -106.72844    
   2647000   186.73176     -18026.194      593.85576    
   2648000   174.83987     -18006.736      485.83407    
   2649000   169.81136     -18040.454      344.14035    
   2650000   181.23938     -18014.32       353.12248    
   2651000   177.20859     -17996.839      718.62558    
   2652000   185.68217     -17937.152      531.33003    
   2653000   172.49707     -18015.454      154.9112     
   2654000   168.41797     -18002.15       469.25519    
   2655000   171.07804     -18052.954      168.46182    
   2656000   181.84645     -17995.294      906.67261    
   2657000   177.08568     -18006.051      742.97878    
   2658000   185.02179     -17998.856      410.13056    
   2659000   179.10958     -17987.31       786.49253    
   2660000   177.43982     -17969.857      455.97494    
   2661000   184.55624     -17997.205      494.12777    
   2662000   172.8514      -18008.388      638.29827    
   2663000   170.65351     -18032.595      7.7513148    
   2664000   174.10166     -18042.614      162.52792    
   2665000   173.74268     -18002.152      766.50882    
   2666000   178.79902     -17995.292      466.02749    
   2667000   164.37488     -18022.027      59.213148    
   2668000   177.07983     -18014.649      349.72637    
   2669000   175.98691     -17976.238      1002.2448    
   2670000   190.23756     -18000.138      129.40713    
   2671000   176.87012     -18023.16       619.94991    
   2672000   184.92119     -18041.065      158.41097    
   2673000   178.65559     -18011.495      259.44448    
   2674000   177.42376     -17992.649      755.72257    
   2675000   191.89921     -17969.438      364.66227    
   2676000   180.21783     -17989.945      292.01233    
   2677000   171.27435     -17995.264      608.82871    
   2678000   174.71475     -18047.752      435.32581    
   2679000   172.07596     -18054.426      191.46065    
   2680000   185.44677     -18009.859      301.9468     
   2681000   186.4118      -17993.297      219.57371    
   2682000   177.85318     -18023.021      616.0643     
   2683000   171.38861     -18057.161      574.08355    
   2684000   180.74798     -18025.295      526.62478    
   2685000   175.4001      -18020.903      281.57594    
   2686000   174.3975      -17986.727      770.28005    
   2687000   175.6028      -17963.133      721.00035    
   2688000   192.43736     -17933.549      571.41859    
   2689000   178.14058     -18024.268      604.097      
   2690000   181.15503     -18037.684      78.273096    
   2691000   181.90833     -17943.502      781.82571    
   2692000   183.1363      -17968.142      580.7288     
   2693000   182.64854     -17984.638      399.208      
   2694000   163.35145     -18026.892      887.23832    
   2695000   170.94659     -18045.96       373.97132    
   2696000   176.95981     -18038.592      253.48019    
   2697000   169.79439     -18018.5        442.46037    
   2698000   177.17074     -17975.516      769.49236    
   2699000   178.2476      -17980.687      779.03437    
   2700000   168.42078     -18043.715      999.07245    
   2701000   171.25659     -18021.803      238.33597    
   2702000   181.33003     -18021.078      241.51324    
   2703000   180.54725     -17971.016      491.02467    
   2704000   188.18328     -17962.776      787.37579    
   2705000   180.34753     -17945.927      1126.976     
   2706000   176.26216     -18010.359      445.10326    
   2707000   182.86627     -18007.801      673.26728    
   2708000   175.9968      -17994.376      727.86609    
   2709000   191.88284     -17953.953      450.78367    
   2710000   179.19487     -17960.812      817.75215    
   2711000   180.14677     -17971.21       1111.8369    
   2712000   174.00705     -17989.12       899.14986    
   2713000   177.92309     -18031.035      82.307489    
   2714000   175.36146     -18027.215      617.92664    
   2715000   171.04437     -17998.477      972.53276    
   2716000   179.30421     -17989.813      732.20861    
   2717000   166.69771     -18025.926      864.29526    
   2718000   170.80455     -18002.022      625.8545     
   2719000   179.54284     -17980.92       531.75612    
   2720000   178.77023     -18019.531      23.905977    
   2721000   170.13242     -18031.584      290.37779    
   2722000   180.683       -17994.971      538.62502    
   2723000   180.11671     -17978.43       549.41639    
   2724000   183.86552     -17992.945      483.47167    
   2725000   176.11104     -18024.023      833.95471    
   2726000   178.01642     -18011.744      313.69582    
   2727000   179.32133     -17948.324      676.59881    
   2728000   177.99826     -17974.049      847.53554    
   2729000   179.3765      -17986.305      654.12406    
   2730000   174.1323      -18052.805      100.66822    
   2731000   177.38437     -18007.41       703.24347    
   2732000   180.88167     -17991.705      954.20263    
   2733000   175.26918     -18007.824      804.86256    
   2734000   166.64864     -18051.3        686.56945    
   2735000   174.68658     -18007.597      563.88127    
   2736000   168.18165     -17995.795      819.55845    
   2737000   174.45131     -18016.343      655.30902    
   2738000   178.38713     -18022.081      13.629265    
   2739000   180.99319     -17987.327      733.74546    
   2740000   182.03366     -17956.174      812.47393    
   2741000   178.77465     -17942.933      909.51959    
   2742000   184.80462     -17971.464      280.85328    
   2743000   184.62688     -17984.881      473.5796     
   2744000   176.88603     -18003.526      609.94812    
   2745000   182.29379     -18028.269      587.3211     
   2746000   166.94504     -18052.976      139.6453     
   2747000   180.64547     -17992.206      1014.3491    
   2748000   188.68194     -17982.333      677.32732    
   2749000   189.53212     -18003.312      554.69423    
   2750000   174.80782     -18038.216      337.86822    
   2751000   171.40329     -18050.142      528.73308    
   2752000   182.53826     -18002.593      864.60336    
   2753000   179.72065     -17989.691      505.64867    
   2754000   184.16174     -17964.264      234.72883    
   2755000   179.80756     -18005.342      968.04839    
   2756000   177.94953     -18027.195      435.13324    
   2757000   180.41517     -17985.909      871.96458    
   2758000   181.29122     -17989.788      619.09513    
   2759000   175.05686     -17968.581      879.56162    
   2760000   174.36301     -18006.555      369.02788    
   2761000   177.49354     -17980.759      255.28655    
   2762000   182.46313     -17962.789      140.54122    
   2763000   188.56247     -17991.531     -0.85540186   
   2764000   170.74294     -18026.533      278.92496    
   2765000   181.24479     -17995.356      400.35431    
   2766000   181.51515     -17961.832      134.81546    
   2767000   182.35959     -17937.972      666.81317    
   2768000   177.48333     -17988.902      270.22286    
   2769000   183.15427     -17999.366      591.13883    
   2770000   178.30523     -18001.624      496.14597    
   2771000   176.94675     -17957.712      679.1071     
   2772000   186.7217      -17959.765      620.65024    
   2773000   173.31043     -17989.588      893.48236    
   2774000   179.68939     -17988.409      835.73037    
   2775000   178.18553     -18018.368      653.19541    
   2776000   178.12747     -17985.576      215.6506     
   2777000   186.18543     -17979.085      178.68007    
   2778000   179.09357     -17993.303      920.3321     
   2779000   183.79989     -18027.939      575.73512    
   2780000   176.79895     -18014.452      715.54767    
   2781000   189.81345     -17946.188      860.99562    
   2782000   183.1028      -17982.12       614.48333    
   2783000   175.71573     -18002.669      506.42598    
   2784000   174.74105     -18036.396      366.56345    
   2785000   175.04624     -18054.652     -28.15388     
   2786000   177.07033     -18025.014      510.88097    
   2787000   181.51591     -17994.155      448.04125    
   2788000   173.85203     -17996.906      789.88478    
   2789000   168.63392     -18097.614      47.379197    
   2790000   183.5508      -17974.036      385.0377     
   2791000   178.8143      -18010.71       330.52776    
   2792000   163.49184     -18061.371      452.87034    
   2793000   181.47273     -18043.978      70.808107    
   2794000   170.59275     -17998.783      458.71397    
   2795000   179.12316     -17986.154      218.83677    
   2796000   174.6472      -17989.206      568.04259    
   2797000   171.31037     -18016.255      329.85055    
   2798000   178.42593     -18003.994      591.94457    
   2799000   183.24725     -17963.365      565.27286    
   2800000   180.04417     -18005.907      512.97604    
   2801000   172.48728     -18029.774      565.40121    
   2802000   179.84008     -18015.038      600.25455    
   2803000   180.53591     -17986.346      701.2967     
   2804000   181.47706     -18004.087      163.15837    
   2805000   177.13856     -18013.391      203.32305    
   2806000   176.31822     -18054.421      527.76688    
   2807000   165.21449     -18037.152      389.22422    
   2808000   176.59781     -18006.297      908.73674    
   2809000   175.13488     -17998.294      756.61194    
   2810000   177.75503     -18009.447      769.43239    
   2811000   176.48463     -18014.871      538.50228    
   2812000   184.81491     -17973.716      686.93221    
   2813000   169.29734     -18043.922      483.85359    
   2814000   176.0062      -18048.111      330.70317    
   2815000   182.3666      -18006.02       444.76136    
   2816000   179.05902     -17979.462      340.62018    
   2817000   171.84868     -18019.464      1044.8285    
   2818000   180.82904     -18003.692      405.95647    
   2819000   190.80192     -17970.637      662.50296    
   2820000   183.17022     -17991.096      927.72421    
   2821000   174.94617     -18023.837      346.55735    
   2822000   171.91941     -18040.626      33.781259    
   2823000   172.26861     -18039.691      772.00036    
   2824000   179.96018     -17992.189      625.09446    
   2825000   180.94225     -17998.776      652.34454    
   2826000   181.24366     -18019.198      513.49976    
   2827000   173.75328     -18052.373      298.11749    
   2828000   180.5768      -18007.895      272.39327    
   2829000   178.37701     -17996.305      470.9226     
   2830000   183.67244     -17997.508      504.95709    
   2831000   179.37814     -18021.078      480.56855    
   2832000   182.91176     -17995.629      592.17684    
   2833000   182.66884     -17972.071      1024.6131    
   2834000   172.30376     -18003.938      698.16734    
   2835000   178.13913     -18006.47       732.45212    
   2836000   188.42914     -17958.074      591.15887    
   2837000   188.122       -17971.204      763.38905    
   2838000   167.91083     -18029.573      899.69911    
   2839000   181.21669     -17973.894      607.33095    
   2840000   185.49603     -17997.321      28.706731    
   2841000   177.69907     -18024.673      495.67064    
   2842000   174.51131     -18001.53       600.57224    
   2843000   176.57882     -18008.834      703.06556    
   2844000   179.59318     -17984.886      663.16568    
   2845000   189.13303     -17950.953      580.19859    
   2846000   178.58118     -17963.22       531.41251    
   2847000   178.55313     -17974.691      301.5652     
   2848000   175.44944     -17997.405      344.44979    
   2849000   167.24293     -18046.128      531.69716    
   2850000   186.1659      -17966.183      600.74277    
   2851000   177.05579     -18001.575      662.45142    
   2852000   173.0985      -18007.435      836.51511    
   2853000   172.66997     -18022.61       361.63982    
   2854000   173.39489     -18024.08       819.40811    
   2855000   175.09141     -17998.63       442.21753    
   2856000   185.52477     -17985.933      542.82984    
   2857000   180.86755     -17997.548      836.11321    
   2858000   179.70891     -17985.656      632.26997    
   2859000   177.1729      -18019.009      759.97683    
   2860000   166.43477     -18009.871      566.02065    
   2861000   178.5663      -17995.466      568.26864    
   2862000   184.73946     -17977.887      639.23443    
   2863000   172.41956     -18029.058      481.9655     
   2864000   171.81844     -18027.254      610.41474    
   2865000   189.44808     -17939.252      811.7238     
   2866000   190.23319     -17967.175      316.41767    
   2867000   179.91954     -18007.85       193.41543    
   2868000   177.66458     -18010.706      390.7442     
   2869000   182.38268     -17992.542      681.33619    
   2870000   165.70928     -18017.292      733.43226    
   2871000   174.68747     -18011.463      842.0975     
   2872000   179.20078     -17996.353      5.8706457    
   2873000   178.64894     -18013.223      589.68028    
   2874000   173.32199     -18024.396      340.19035    
   2875000   185.14106     -17975.875      520.52415    
   2876000   175.73456     -18000.448      436.52501    
   2877000   175.81948     -18011.334      849.5433     
   2878000   171.58193     -17999.133      382.10992    
   2879000   177.91366     -18002.592      649.01149    
   2880000   184.18016     -17979.418      419.14269    
   2881000   180.39488     -17933.653      889.12864    
   2882000   180.00617     -17963.358      440.32095    
   2883000   176.0842      -17987.718      470.2917     
   2884000   178.13503     -17988.369      556.39898    
   2885000   187.19583     -17961.165      722.326      
   2886000   181.14926     -17978.126      637.79953    
   2887000   170.95421     -18009.239      453.64434    
   2888000   170.02211     -18018.458      382.2547     
   2889000   177.45852     -17990.166     -15.586925    
   2890000   186.61902     -17951.039      776.00044    
   2891000   181.09751     -17968.769      513.84539    
   2892000   178.11724     -18006.789      197.72272    
   2893000   181.08056     -18021.233      216.36914    
   2894000   179.38556     -17987.28       561.23334    
   2895000   169.12462     -18023.472      496.58491    
   2896000   185.32341     -17997.594      302.28898    
   2897000   190.5203      -17969.993      661.27076    
   2898000   183.39573     -17980.649      856.61559    
   2899000   174.80242     -18013.948      709.10919    
   2900000   175.62283     -18021.416      195.014      
   2901000   179.13791     -17988.636      715.72399    
   2902000   175.75        -17986.67       275.4635     
   2903000   176.44656     -17991.669      457.02528    
   2904000   178.92837     -18036.89       276.19159    
   2905000   173.18156     -17998.101      145.43908    
   2906000   189.42662     -17959.843      768.05825    
   2907000   182.30185     -17991.665      453.13571    
   2908000   180.37234     -18024.267      422.62073    
   2909000   173.28883     -18020.951      282.4618     
   2910000   169.86425     -18018.157      575.51635    
   2911000   177.67379     -17969.298      895.84827    
   2912000   183.95962     -17954.821      842.43254    
   2913000   187.90359     -17982.864      149.27481    
   2914000   178.42732     -18016.457      244.69078    
   2915000   172.83571     -18012.038      709.1631     
   2916000   181.43968     -17969.228      574.27664    
   2917000   187.4151      -17977.605      443.22019    
   2918000   168.9083      -17988.439      1065.2334    
   2919000   180.96415     -18002.015      243.35793    
   2920000   174.08487     -18029.249      572.05834    
   2921000   172.92255     -18060.495      137.56323    
   2922000   180.87288     -17983.785      404.01425    
   2923000   175.84879     -18033.655      291.64441    
   2924000   171.5834      -18031.865      222.74682    
   2925000   172.75125     -18007.354      796.29597    
   2926000   185.13585     -17981.627      563.27291    
   2927000   172.31276     -17983.138      417.72369    
   2928000   182.27606     -17990.312      717.37826    
   2929000   179.2153      -18028.129      474.37892    
   2930000   179.90003     -18008.658      158.33697    
   2931000   187.14277     -17942.366      647.13767    
   2932000   175.89791     -17977.916      1173.728     
   2933000   177.31802     -17993.338      700.11467    
   2934000   176.30799     -18011.645      368.49259    
   2935000   179.20787     -18013          423.23188    
   2936000   177.47825     -17990.281      497.182      
   2937000   184.56239     -17960.612      469.12558    
   2938000   182.7644      -17938.051      1011.3541    
   2939000   176.67723     -18003.773      664.13474    
   2940000   168.04029     -18018.413      274.4997     
   2941000   183.10195     -17983.638      697.11165    
   2942000   170.21782     -18002.986      684.20183    
   2943000   170.01673     -18023.165      612.04631    
   2944000   173.15282     -17991.492      872.61433    
   2945000   183.74183     -17985.601      452.62532    
   2946000   172.13648     -18033.344      664.68574    
   2947000   169.96793     -18026.355      454.81669    
   2948000   173.79256     -17977.511      609.20521    
   2949000   183.1094      -17998.773      540.14322    
   2950000   167.96115     -18022.947      341.62733    
   2951000   174.09256     -18051.36       251.07767    
   2952000   180.80419     -17993.495      682.55854    
   2953000   170.7122      -17982.287      526.64319    
   2954000   183.54983     -17985.649      756.37911    
   2955000   175.0143      -18037.377      379.70157    
   2956000   175.21881     -17999.094      527.02733    
   2957000   178.46482     -17958.121      831.07675    
   2958000   180.85684     -17977.344      593.57759    
   2959000   179.35538     -18004.415      476.7191     
   2960000   167.86678     -18016.432      535.87       
   2961000   166.06217     -18022.798      596.10614    
   2962000   184.55108     -17959.911      763.5706     
   2963000   186.44516     -17961.724      225.80126    
   2964000   166.32561     -18072.241      214.92587    
   2965000   174.63253     -17976.231      182.35255    
   2966000   181.61082     -17969.865      545.62893    
   2967000   179.6573      -18003.841      517.36729    
   2968000   175.89954     -17994.238      537.57992    
   2969000   189.90173     -17938.507      464.12864    
   2970000   179.29158     -17949.534      559.91827    
   2971000   184.19289     -17966.832      328.51088    
   2972000   175.59421     -17993.601      794.78973    
   2973000   173.91953     -18038.666      94.809391    
   2974000   185.48841     -17944.946      681.27838    
   2975000   183.06939     -17966.261      686.102      
   2976000   170.94116     -18013.023      698.23595    
   2977000   179.56757     -18018.991      712.45769    
   2978000   171.37135     -18032.104      229.18134    
   2979000   183.27706     -17985.501      312.24138    
   2980000   177.56582     -17986.709      976.95423    
   2981000   179.49691     -17993.169      537.28913    
   2982000   170.1483      -18030.131      615.49729    
   2983000   175.04292     -18044.304     -95.114658    
   2984000   185.84964     -17970.432      793.02637    
   2985000   173.70253     -17952.472      1025.0846    
   2986000   179.33196     -18001.88       701.85476    
   2987000   177.66516     -17971.303      827.88737    
   2988000   183.71919     -17948.011      1081.5384    
   2989000   182.66903     -17980.745      670.44678    
   2990000   182.84842     -17967.138      776.23404    
   2991000   177.20723     -17968.755      692.1294     
   2992000   176.01414     -18004.656      355.80662    
   2993000   178.71955     -17968.507      561.60407    
   2994000   182.98778     -17984.858      620.4022     
   2995000   174.26521     -17990.857      930.17783    
   2996000   177.11779     -18026.327      311.57366    
   2997000   172.85542     -18028.255      217.6602     
   2998000   176.73153     -17977.536      654.74963    
   2999000   171.97511     -18015.425      618.36287    
   3000000   171.17128     -17983.443      702.47061    
   3001000   183.28077     -17971.536      334.0288     
   3002000   186.25092     -17948.098      877.36466    
   3003000   187.17973     -17970.017      718.12469    
   3004000   180.58168     -17990.134      628.75605    
   3005000   176.38275     -18031.044      428.5692     
   3006000   165.96176     -18031.568      255.75345    
   3007000   181.21063     -17978.476      568.9153     
   3008000   181.37501     -17979.668      510.63866    
   3009000   170.80978     -18092.323      82.793933    
   3010000   184.7638      -17984.291      236.12658    
   3011000   177.26333     -17983.137      914.2453     
   3012000   185.10112     -17926.324      1106.6051    
   3013000   183.26062     -17994.602     -39.45528     
   3014000   173.69236     -18007.155      773.74601    
   3015000   172.30103     -17984.171      398.9199     
   3016000   192.17503     -17918.499      442.88165    
   3017000   183.53467     -17961.187      628.66503    
   3018000   180.06343     -17979.478      241.20001    
   3019000   179.60958     -18009.961      550.59876    
   3020000   176.68221     -17989.457      225.83667    
   3021000   191.28278     -17973.53       1075.3984    
   3022000   187.28405     -17932.571      808.12751    
   3023000   182.1641      -18006.382      274.54562    
   3024000   174.00473     -18011.049      297.26515    
   3025000   178.78487     -17955.647      338.53675    
   3026000   194.08264     -17942.925      796.70177    
   3027000   177.19158     -17994.655      205.73394    
   3028000   176.04255     -18014.242      262.12642    
   3029000   183.02875     -17986.426      651.35176    
   3030000   184.14153     -17956.748      632.41855    
   3031000   174.23398     -17967.894      167.011      
   3032000   182.07553     -17986.755      669.48172    
   3033000   182.90599     -17963.485      848.30137    
   3034000   176.02474     -17987.847      168.23364    
   3035000   179.91576     -17995.911      83.606685    
   3036000   164.94717     -18026.038      933.15233    
   3037000   175.15492     -17981.045      809.09054    
   3038000   174.50408     -18010.769      578.47791    
   3039000   182.22696     -18040.3       -286.50122    
   3040000   167.35461     -18034.908      436.01204    
   3041000   180.30825     -17993.729      508.25889    
   3042000   181.19678     -17968.91       543.82278    
   3043000   175.61488     -17970.25       495.52492    
   3044000   169.76249     -18004.106      982.16131    
   3045000   181.13083     -18004.719      414.48143    
   3046000   185.8072      -17956.588      868.24328    
   3047000   186.26376     -17956.561      795.82465    
   3048000   177.45074     -17953.936      727.76343    
   3049000   181.84571     -18001.516      246.43004    
   3050000   174.27294     -18003.882      523.8857     
   3051000   178.32033     -17977.862      758.84518    
   3052000   180.28286     -17937.261      934.88455    
   3053000   176.69314     -18001.488      427.90576    
   3054000   178.23688     -18009.153      484.63377    
   3055000   172.10749     -18010.832      192.56547    
   3056000   173.2676      -17981.035      969.57143    
   3057000   173.63947     -17961.25       887.40737    
   3058000   172.59185     -18011.193      544.6697     
   3059000   172.84712     -18039.79       716.08372    
   3060000   171.14637     -18028.557      601.5225     
   3061000   182.49773     -17967.511      756.91386    
   3062000   183.36406     -17965.28       610.299      
   3063000   163.86074     -18024.716      324.44643    
   3064000   171.84065     -18006.547      485.30107    
   3065000   178.09781     -17970.355      649.09384    
   3066000   183.35104     -17944.794      772.19221    
   3067000   177.29263     -17960.029      1072.9313    
   3068000   175.05564     -17985.662      880.99223    
   3069000   174.2348      -18026.268      380.61033    
   3070000   179.53196     -17978.213      528.35131    
   3071000   189.18113     -17949.839      275.75081    
   3072000   177.13088     -17977.675      453.89069    
   3073000   173.402       -18010.253      818.28823    
   3074000   181.61543     -17969.873      465.59232    
   3075000   190.97836     -17949.736      232.80503    
   3076000   176.02955     -17976.04       1078.2017    
   3077000   169.53701     -17997.256      724.38922    
   3078000   182.9614      -17969.201      482.94326    
   3079000   181.61566     -17952.549      534.21421    
   3080000   179.6838      -17984.185      586.351      
   3081000   170.84777     -18033.921      596.27163    
   3082000   164.40526     -18017.445      891.04114    
   3083000   180.81254     -17972.156      489.22246    
   3084000   179.42087     -17996.436      664.18445    
   3085000   184.22709     -17986.457      407.32797    
   3086000   179.92256     -17992.074      645.77585    
   3087000   182.75557     -17964.534      452.81083    
   3088000   180.27679     -17988.294      579.01       
   3089000   181.69489     -17970.827      762.46803    
   3090000   186.16849     -17958.896      711.52189    
   3091000   182.9534      -17955.669      870.42556    
   3092000   180.16181     -17992.403      191.77955    
   3093000   174.67933     -17980.12       1091.0496    
   3094000   177.39265     -17992.966      879.01623    
   3095000   181.68081     -17990.338      627.42639    
   3096000   185.19225     -17951.94       749.6007     
   3097000   177.77647     -17950.37       739.57092    
   3098000   172.3367      -17994.335      660.92629    
   3099000   180.59553     -17990.262      753.45705    
   3100000   188.68959     -17932.738      904.22078    
   3101000   178.85571     -17965.329      713.68234    
   3102000   174.33239     -17982.43       618.31763    
   3103000   179.93184     -17952.259      636.89162    
   3104000   185.54233     -17973.268      686.33769    
   3105000   170.74197     -18031.282      596.44291    
   3106000   179.4315      -18013.887      175.05291    
   3107000   173.67811     -17971.473      503.2228     
   3108000   184.67745     -17963.059      778.89223    
   3109000   193.66175     -17924.325      650.46307    
   3110000   168.40778     -18008.515      597.38277    
   3111000   174.41644     -17994.52       730.40929    
   3112000   182.72975     -17948.735      621.3956     
   3113000   191.16971     -17943.372      652.6093     
   3114000   176.13577     -18004.662      665.53844    
   3115000   170.61833     -18016.981      708.81152    
   3116000   176.28433     -18008.839      597.37581    
   3117000   177.63925     -17999.614      448.67062    
   3118000   192.79044     -17923.939      857.24433    
   3119000   176.72207     -17986.773      689.41708    
   3120000   172.96302     -17991.895      944.49275    
   3121000   173.07239     -17993.532      672.68236    
   3122000   178.99927     -17967.253      387.3883     
   3123000   184.41862     -17937.783      462.74444    
   3124000   180.69017     -17962.313      639.81339    
   3125000   174.11708     -18006.438      275.92371    
   3126000   175.38982     -17984.412      664.85594    
   3127000   180.7903      -17973.21       771.80134    
   3128000   185.21426     -17954.913      522.49361    
   3129000   176.87748     -17978.825      727.51348    
   3130000   171.62234     -18021.037      267.85475    
   3131000   174.52095     -17997.441      863.25773    
   3132000   175.24746     -17990.06       573.5938     
   3133000   185.86652     -17963.114      1020.1214    
   3134000   185.26811     -17983.255      724.96864    
   3135000   178.04495     -17991.922      543.02276    
   3136000   177.91351     -17998.419      586.83356    
   3137000   185.84176     -17975.816      502.07642    
   3138000   181.24047     -18001.019      743.27116    
   3139000   173.51358     -18017.177      518.31593    
   3140000   180.52658     -17962.175      362.86191    
   3141000   185.19662     -17965.652      814.1342     
   3142000   173.82462     -18007.376      922.27922    
   3143000   179.07192     -17992.875      805.89613    
   3144000   185.12819     -17980.355      618.54316    
   3145000   177.28178     -17988.897      575.18935    
   3146000   173.75915     -18041.591      384.68353    
   3147000   174.45347     -18020.391      586.56739    
   3148000   183.60577     -17993.092      642.36444    
   3149000   173.93324     -17993.125      801.76702    
   3150000   179.33313     -17998.196      647.88264    
   3151000   176.95512     -18031.602      349.73037    
   3152000   173.64639     -18015.841      298.77546    
   3153000   176.89395     -17993.177      990.08898    
   3154000   171.92032     -17964.003      714.20697    
   3155000   171.10775     -17994.122      794.64335    
   3156000   172.30277     -18030.351      264.12565    
   3157000   180.80537     -18016.895      418.81712    
   3158000   183.0151      -17994.92       610.21081    
   3159000   178.05097     -17980.581      910.11268    
   3160000   168.0866      -18052.825      455.1727     
   3161000   172.12078     -18043.579      395.56573    
   3162000   176.62204     -18008.309      154.66852    
   3163000   179.22802     -17975.799      685.25595    
   3164000   183.09514     -17988.261      544.31597    
   3165000   176.00795     -18019.441      759.62286    
   3166000   177.59807     -17983.55       495.15527    
   3167000   175.55686     -17971.646      841.22648    
   3168000   172.53357     -17994.88       873.10819    
   3169000   177.53025     -17998.964      1024.3387    
   3170000   177.40032     -17960.323      914.49502    
   3171000   191.9296      -17957.81       723.99731    
   3172000   187.3425      -17953.486      298.80385    
   3173000   186.44526     -18001.161      306.90396    
   3174000   182.42317     -18007.64       611.88997    
   3175000   180.36948     -17973.489      554.84334    
   3176000   178.18225     -17995.973      232.37052    
   3177000   174.90443     -18035.179      318.62455    
   3178000   189.68094     -18003.222     -65.368022    
   3179000   190.83684     -17958.666      510.93208    
   3180000   178.96217     -17991.509      293.29288    
   3181000   172.41069     -18011.295      258.77576    
   3182000   182.3066      -18016.459      283.14461    
   3183000   178.05365     -17967.426      387.34102    
   3184000   168.97992     -18053.554      507.75832    
   3185000   169.10233     -18038.885      304.35517    
   3186000   167.68351     -18017.782      649.76427    
   3187000   181.69592     -17992.803      583.76562    
   3188000   178.53279     -17983.141      589.99761    
   3189000   180.2691      -18008.161      322.2172     
   3190000   175.90949     -18017.303      685.47958    
   3191000   178.00217     -17991.987      728.84555    
   3192000   182.19184     -17939.858      913.84642    
   3193000   176.53439     -18004.107      358.14155    
   3194000   173.47524     -18037.317      289.0296     
   3195000   171.62299     -18025.695      480.75351    
   3196000   188.84806     -17946.349      839.0586     
   3197000   186.91333     -17954.907      454.33602    
   3198000   180.39105     -17998.733      834.9523     
   3199000   184.97742     -17964.688      607.87389    
   3200000   175.87454     -17986.478      457.34827    
   3201000   173.21341     -18018.332      686.99121    
   3202000   182.20202     -17978.211      487.99475    
   3203000   180.3128      -18013.644      798.4195     
   3204000   169.21947     -18043.206      267.17146    
   3205000   175.56666     -18004.662      542.51648    
   3206000   178.249       -17999.801      856.16741    
   3207000   187.36262     -17977.731      499.57078    
   3208000   187.40621     -17938.818      598.04096    
   3209000   176.85053     -18015.526      649.81977    
   3210000   179.35769     -18025.834      314.84143    
   3211000   168.9602      -17971.039      847.36482    
   3212000   180.37122     -17964.17       776.69105    
   3213000   181.37676     -17980.101      700.89321    
   3214000   185.38842     -17992.353      394.32115    
   3215000   180.17133     -18010.099      435.94674    
   3216000   169.09034     -17977.624      885.44448    
   3217000   177.44466     -17951.048      801.28065    
   3218000   174.89856     -17999.77       480.44857    
   3219000   167.73233     -17994.174      496.62349    
   3220000   170.87761     -17966.806      639.51505    
   3221000   184.69684     -17999.465      526.78867    
   3222000   172.52772     -18026.313      582.06761    
   3223000   171.14379     -17989.078      1152.9359    
   3224000   180.98757     -17979.249      885.07618    
   3225000   178.63323     -17981.311      507.21843    
   3226000   170.36437     -18015.104      644.0684     
   3227000   176.59584     -17962.038      370.50772    
   3228000   183.25801     -17947.657      671.8648     
   3229000   177.7955      -17992.579      784.78433    
   3230000   170.44076     -18030.98       560.50075    
   3231000   168.45121     -18014.784      510.07649    
   3232000   184.43644     -17974.334      535.45103    
   3233000   179.67075     -17977.955      1254.0526    
   3234000   172.863       -18006.691      889.75106    
   3235000   179.4315      -18029.909      413.69074    
   3236000   182.19537     -17998.356      746.00655    
   3237000   179.2724      -17956.739      774.24119    
   3238000   189.39721     -17951.971      793.37001    
   3239000   183.21857     -17950.309      1006.1182    
   3240000   183.02203     -17994.279      314.43673    
   3241000   173.84493     -18002.429      768.14697    
   3242000   179.88302     -17952.408      277.16273    
   3243000   180.80093     -17949.426      812.03998    
   3244000   170.8788      -17997.119      775.31328    
   3245000   174.27824     -17988.909      366.57345    
   3246000   179.52842     -17987.486      749.95478    
   3247000   176.78963     -18015.192      302.35245    
   3248000   177.45952     -18014.497      275.13858    
   3249000   175.34692     -18007.919      888.52413    
   3250000   188.27071     -17967.701      483.60021    
   3251000   183.72107     -17953.17       881.43353    
   3252000   169.44561     -18021.529      388.7236     
   3253000   177.11282     -18021.262      827.49137    
   3254000   181.34866     -18004.522      314.51217    
   3255000   182.25555     -17970.057      3.8468155    
   3256000   184.66151     -17975.542      426.03039    
   3257000   182.80237     -17989.237      300.27538    
   3258000   175.33862     -18051.13      -263.5587     
   3259000   171.34904     -18043.742      182.23616    
   3260000   184.79049     -18001.873      49.51258     
   3261000   182.97605     -17984.269      571.0464     
   3262000   184.78329     -17983.722      354.78141    
   3263000   180.92204     -18005.715      44.363111    
   3264000   176.73269     -17984.954      547.66875    
   3265000   179.76901     -17978.188      350.30918    
   3266000   179.25694     -17988.043      496.92144    
   3267000   174.00571     -18023.763      505.73054    
   3268000   176.54018     -18003.484      187.74835    
   3269000   178.36179     -17982.39       245.41493    
   3270000   181.63357     -17972.65       763.32032    
   3271000   176.72575     -18013.47       504.58299    
   3272000   181.39608     -18010.602      116.0476     
   3273000   188.1897      -17962.162      397.46285    
   3274000   177.93851     -17998.588      730.10893    
   3275000   172.95033     -18066.984      242.1354     
   3276000   176.13644     -18032.023      182.12458    
   3277000   176.36119     -18006.469      302.19704    
   3278000   178.64247     -17990.792      428.14013    
   3279000   187.90983     -17962.34       429.98213    
   3280000   183.73435     -17968.505      242.92293    
   3281000   176.22369     -18010.249      253.52002    
   3282000   185.79899     -18006.614      395.07696    
   3283000   182.02958     -17983.605      310.18855    
   3284000   175.91036     -17995.381      520.67869    
   3285000   173.13822     -18020.109      503.40867    
   3286000   177.02265     -18020.312      446.46209    
   3287000   174.97936     -17991.884      544.83688    
   3288000   183.70439     -17974.191      741.29628    
   3289000   174.98215     -17994.089      436.67229    
   3290000   171.2795      -18033.472      115.74085    
   3291000   179.6246      -18006.827      380.983      
   3292000   178.16124     -17970.99       597.72437    
   3293000   180.847       -17969.165      749.81861    
   3294000   173.44993     -18008.146      717.09189    
   3295000   183.08906     -17994.434     -83.847049    
   3296000   183.3949      -17969.178      819.9479     
   3297000   177.67573     -17993.458      521.91032    
   3298000   172.07385     -18031.085      250.94053    
   3299000   175.32547     -18030.395      237.54163    
   3300000   175.62391     -18008.887      291.72583    
   3301000   177.27606     -17977.258      402.85313    
   3302000   188.29996     -18001.181      588.76503    
   3303000   173.5979      -18011.755      1251.3327    
   3304000   172.46059     -18022.573      712.82513    
   3305000   188.56842     -17929.91       811.62486    
   3306000   180.56649     -17990.371      680.5159     
   3307000   172.44076     -18023.767      275.89168    
   3308000   164.83711     -18034.523      701.45221    
   3309000   177.71865     -18007.672      499.92902    
   3310000   181.01621     -17994.515      428.25189    
   3311000   168.93827     -18049.557      154.82268    
   3312000   172.82438     -18039.804      379.88415    
   3313000   166.24635     -18022.787      802.27617    
   3314000   176.31542     -17990.525      595.31401    
   3315000   181.18868     -17934.527      666.12856    
   3316000   179.00516     -18008.008      71.111877    
   3317000   181.47103     -18035.876      184.88166    
   3318000   177.6187      -18021.249      72.748565    
   3319000   174.12586     -17999.525      551.27031    
   3320000   185.73743     -17928.262      868.09535    
   3321000   184.22826     -18006.683      168.42648    
   3322000   176.54786     -18032.631      825.59907    
   3323000   175.9613      -18004.622      255.91141    
   3324000   177.43845     -17963.363      344.63679    
   3325000   179.12528     -17996.514      356.23894    
   3326000   179.54267     -18016.57       137.07643    
   3327000   171.59651     -17969.531      775.08185    
   3328000   183.39566     -17951.002      472.00844    
   3329000   183.26256     -17988.325      99.5449      
   3330000   172.88604     -18009.321      664.35027    
   3331000   178.81869     -17974.357      909.55355    
   3332000   182.19618     -17970.886      520.07611    
   3333000   178.36176     -18020.333      603.0924     
   3334000   177.93424     -17967.465      285.33384    
   3335000   180.20609     -17990.919      154.01082    
   3336000   175.32582     -18024.965      34.720543    
   3337000   166.58818     -18016.443      1168.4259    
   3338000   188.39036     -17988.651      550.73921    
   3339000   178.42885     -17993.456      791.8048     
   3340000   172.20955     -18072.205      234.099      
   3341000   183.42553     -17965.996      537.0845     
   3342000   180.56145     -18000.539      401.67558    
   3343000   169.79576     -18045.776      532.93497    
   3344000   178.6513      -18029.52       367.18311    
   3345000   178.16808     -17987.296      632.18687    
   3346000   168.40912     -18044.517      482.78542    
   3347000   168.77344     -18055.391      297.58876    
   3348000   175.14534     -18026.298      245.9741     
   3349000   181.48831     -18027.567      609.55109    
   3350000   170.71631     -18006.795      1032.2276    
   3351000   174.98492     -18036.418      466.42583    
   3352000   170.48635     -18035.854      158.43669    
   3353000   175.58021     -18030.151      389.092      
   3354000   184.00339     -17981.063      464.49856    
   3355000   180.00735     -17990.344      396.03485    
   3356000   176.14842     -18044.658      137.83222    
   3357000   176.69301     -17990.339      1110.1893    
   3358000   180.14384     -17994.928      350.60331    
   3359000   169.58169     -18040.791      458.47962    
   3360000   171.75757     -18045.038      85.649369    
   3361000   177.609       -18003.516      434.08108    
   3362000   187.50801     -17981.397      293.56161    
   3363000   176.44445     -18009.65       18.975319    
   3364000   168.8469      -18001.577      546.56275    
   3365000   177.78001     -17984.073      814.83403    
   3366000   179.56716     -17974.926      232.23365    
   3367000   160.10548     -18085.465     -115.53783    
   3368000   177.02096     -18030.673      421.27106    
   3369000   184.97963     -18008.847      369.54807    
   3370000   179.20585     -17983.322      603.45954    
   3371000   177.06541     -18023.221      354.73995    
   3372000   172.28714     -18031.517      695.4158     
   3373000   168.73968     -18016.376      348.34051    
   3374000   187.29826     -17955.263      663.64759    
   3375000   169.54206     -17996.358      321.89156    
   3376000   178.12913     -18014.904      5.4500183    
   3377000   177.63322     -18038.24       93.842045    
   3378000   174.55742     -18038.551      309.04908    
   3379000   184.10333     -18012.644      547.20349    
   3380000   177.68733     -18010.81       375.04397    
   3381000   170.785       -18052.648      377.63796    
   3382000   174.98522     -18026.304      485.55273    
   3383000   179.05457     -17990.255      553.15854    
   3384000   184.87321     -17977.39       562.41288    
   3385000   185.18765     -17997.728      199.78236    
   3386000   172.00089     -18008.388      336.9161     
   3387000   177.43633     -17981.229      257.05241    
   3388000   186.55695     -17939.496      1096.6339    
   3389000   184.36661     -17975.038      493.87763    
   3390000   179.57212     -17973.278      407.21276    
   3391000   176.51514     -18008.384      667.0439     
   3392000   176.92188     -17977.934      571.4043     
   3393000   177.04955     -17996.657      724.83497    
   3394000   172.17422     -18021.784      970.68135    
   3395000   176.81011     -18003.13       371.26735    
   3396000   183.21056     -17985.907      542.97239    
   3397000   185.46321     -17993.114      798.63791    
   3398000   166.71529     -18051.661      476.51198    
   3399000   170.98047     -18015.467      725.11461    
   3400000   186.7256      -17986.724      478.02509    
   3401000   179.17011     -18004.2        286.26848    
   3402000   173.53607     -18007.862      447.29019    
   3403000   174.91196     -17988.091      649.6718     
   3404000   183.96505     -17998.078      652.78995    
   3405000   176.29003     -17993.508      1055.3058    
   3406000   169.62406     -18056.524      652.05961    
   3407000   175.94756     -17998.482      515.14817    
   3408000   184.23689     -17978.374      715.69836    
   3409000   181.25849     -17996.953      191.63552    
   3410000   176.27766     -18022.788      193.79358    
   3411000   172.9566      -18065.66       470.62603    
   3412000   183.69072     -17967.221      859.79443    
   3413000   177.28311     -18006.907      474.07538    
   3414000   166.76818     -18005.466      1178.46      
   3415000   175.55563     -17999.33       450.95357    
   3416000   180.73393     -17980.691      546.73142    
   3417000   173.52758     -18011.995      617.48968    
   3418000   178.09652     -18024.057      314.71561    
   3419000   178.7354      -17975.525      613.29589    
   3420000   188.63877     -17950.589      304.99172    
   3421000   183.84175     -17982.47       835.2833     
   3422000   177.32106     -18007.394      272.85208    
   3423000   176.91839     -18009.631      778.11096    
   3424000   188.99663     -17961.441      431.01897    
   3425000   173.07718     -17988.198      662.00019    
   3426000   172.22153     -17994.895      741.68727    
   3427000   169.76801     -18016.197      541.50714    
   3428000   185.57862     -17983.78       354.01956    
   3429000   175.68822     -17985.278      778.30489    
   3430000   180.49003     -17986.108      610.92785    
   3431000   178.06212     -18014.504      814.59794    
   3432000   172.202       -18057.21       544.99921    
   3433000   175.17699     -17995.331      333.64289    
   3434000   177.78084     -17993.487      620.37266    
   3435000   178.8083      -18006.491      268.37148    
   3436000   176.66426     -18027.152      569.17805    
   3437000   176.28365     -18023.336      268.60042    
   3438000   181.00191     -18008.531      784.82826    
   3439000   185.35306     -17984.697      634.97065    
   3440000   175.31087     -17984.771      1001.0984    
   3441000   173.47897     -18011.339      546.9412     
   3442000   168.27729     -18024.168      855.10733    
   3443000   171.57747     -18024.786      658.36342    
   3444000   185.66836     -17944.057      1160.6809    
   3445000   184.25474     -17978.962      882.30961    
   3446000   167.80582     -18014.155      807.125      
   3447000   179.13697     -17978.807      565.83371    
   3448000   177.53358     -17986.592      833.22582    
   3449000   187.33884     -17999.153      576.51316    
   3450000   175.9615      -18046.159      264.10056    
   3451000   176.12761     -17990.091      662.84328    
   3452000   171.67185     -18018.606      746.28099    
   3453000   172.39107     -18024.545      32.900215    
   3454000   174.54121     -18009.582      587.39941    
   3455000   183.66011     -17944.02       767.27482    
   3456000   180.45295     -17992.766      617.45511    
   3457000   177.31899     -18009.069      460.85793    
   3458000   177.06502     -18008.766      419.43946    
   3459000   183.79966     -17981.938      616.79905    
   3460000   168.76899     -18018.791      1368.6042    
   3461000   180.37408     -18039.26       554.71358    
   3462000   185.11988     -17986.231      849.64181    
   3463000   188.74349     -17995.212      391.60604    
   3464000   167.84376     -18043.579      673.85168    
   3465000   178.74018     -18009.707      631.32362    
   3466000   183.51452     -17997.589      281.35206    
   3467000   169.20052     -18027.51       719.57094    
   3468000   170.78469     -18048.327      314.88493    
   3469000   180.59276     -17993.181      731.15142    
   3470000   181.92184     -17984.061      347.5323     
   3471000   184.07194     -17960.213      555.44047    
   3472000   186.69841     -17929.032      1152.8407    
   3473000   175.32593     -17993.859      434.12233    
   3474000   174.71776     -18005.591      643.80706    
   3475000   181.87644     -18002.694      452.47383    
   3476000   190.07438     -17955.044      959.0601     
   3477000   180.1524      -17956.034      877.22782    
   3478000   177.66869     -17989.496      519.03605    
   3479000   176.50363     -17991.373      604.21556    
   3480000   174.19104     -18016.922      340.46543    
   3481000   177.84695     -17992.002      360.56769    
   3482000   177.75952     -17967.748      565.49144    
   3483000   175.47522     -17983.504      747.54987    
   3484000   161.00792     -18050.961      724.94547    
   3485000   175.97347     -18003.524      736.03015    
   3486000   176.76011     -17995.749      740.52206    
   3487000   172.64527     -18003.164      1189.4407    
   3488000   180.49706     -18040.342      464.2611     
   3489000   176.31747     -18016.215      761.98049    
   3490000   181.83237     -17997.405      480.64811    
   3491000   185.87816     -17931.593      901.6812     
   3492000   177.46744     -18001.493      603.83363    
   3493000   170.51929     -18004.907      910.67604    
   3494000   177.77121     -17990.077      342.26904    
   3495000   187.39154     -17928.712      914.41798    
   3496000   191.84183     -17967.707      514.30358    
   3497000   180.87307     -17990.65       781.32463    
   3498000   173.86791     -18002.605      1005.2749    
   3499000   171.74835     -18028.675      770.48433    
   3500000   164.39389     -18040.873      718.90943    
   3501000   178.81623     -17974.472      686.02943    
   3502000   175.90399     -18028.691      660.89807    
   3503000   179.82087     -18026.612      325.08684    
   3504000   167.97152     -18018.53       221.33266    
   3505000   186.20804     -17982.921      1164.3203    
   3506000   177.91156     -17954.585      1046.8575    
   3507000   174.49196     -18000.571      924.49033    
   3508000   181.91109     -17963.316      939.45776    
   3509000   181.50766     -17957.332      1025.3917    
   3510000   181.20756     -17981.742      1222.2788    
   3511000   171.9014      -18016.285      750.65916    
   3512000   183.81702     -17998.418      657.74429    
   3513000   177.10239     -18005.211      608.74107    
   3514000   174.42398     -18008.444      816.62354    
   3515000   175.79494     -17986.762      445.45252    
   3516000   184.78509     -17971.927      503.84577    
   3517000   181.20979     -17947.403      1089.0505    
   3518000   171.10534     -17992.111      542.62507    
   3519000   173.77088     -18009.485      769.82004    
   3520000   183.28397     -17980.682      630.72199    
   3521000   176.92067     -17945.378      1114.0903    
   3522000   183.19657     -17982.309      588.57171    
   3523000   175.78092     -17980.053      887.1695     
   3524000   169.47954     -18038.443      657.23984    
   3525000   169.06133     -18024.544      680.71045    
   3526000   176.09301     -17988.649      695.96112    
   3527000   172.26977     -17992.393      549.44095    
   3528000   171.45127     -18032.566      270.79249    
   3529000   176.45245     -18018.885      625.56126    
   3530000   180.41054     -17997.136      876.17572    
   3531000   182.67041     -17973.261      574.98685    
   3532000   173.2927      -18023.235      240.80975    
   3533000   170.38359     -18026.88       632.22063    
   3534000   184.40836     -17970.665      518.38551    
   3535000   195.61713     -17953.238      299.22415    
   3536000   177.91884     -18002.157      304.2799     
   3537000   167.64009     -18010.606      627.3659     
   3538000   176.05963     -18028.498      241.69565    
   3539000   181.14737     -17984.653      538.34808    
   3540000   175.66211     -17987.42       738.03966    
   3541000   177.47007     -17985.443      688.35176    
   3542000   178.35235     -17961.746      733.55091    
   3543000   177.44851     -17982.182      835.8783     
   3544000   182.62448     -17978.2        593.8388     
   3545000   177.6067      -17954.637      586.39213    
   3546000   181.9753      -17975.99       523.77445    
   3547000   174.8653      -18011.831      657.75061    
   3548000   178.34035     -18012.843      948.7741     
   3549000   174.99318     -18011.869      146.78603    
   3550000   182.61119     -17977.655      722.11376    
   3551000   178.26141     -17982.61       321.10134    
   3552000   175.25836     -18008.33       574.88365    
   3553000   174.66397     -18008.727      704.42253    
   3554000   178.2396      -17969.706      730.97891    
   3555000   180.47195     -18010.054      439.72606    
   3556000   176.97713     -18022.937      470.02185    
   3557000   190.77968     -17990.17       176.0314     
   3558000   187.21448     -17964.626      436.07942    
   3559000   182.53458     -17975.233      428.51091    
   3560000   177.48768     -18021.855      193.84713    
   3561000   182.0294      -17996.981      371.52697    
   3562000   175.28324     -17950.059      715.8302     
   3563000   189.56531     -17987.715     -53.811594    
   3564000   178.83399     -18012.651      962.48642    
   3565000   168.66319     -18031.537      483.35199    
   3566000   174.3428      -18027.344      338.56232    
   3567000   181.49499     -18010.964      205.28123    
   3568000   189.67572     -17982.053      340.23734    
   3569000   180.57473     -18004.061      246.55599    
   3570000   170.01341     -18052.12       314.74583    
   3571000   172.09007     -18020.255      444.99164    
   3572000   178.78567     -17999.07       371.41129    
   3573000   179.7547      -17998.339      402.92544    
   3574000   175.20393     -18006.664      600.33352    
   3575000   175.81494     -18021.084      537.31383    
   3576000   182.74644     -18012.002      532.61955    
   3577000   175.90181     -18006.276      125.07841    
   3578000   187.79601     -17997.507      629.26191    
   3579000   171.38694     -18007.187      531.91062    
   3580000   174.79508     -18029.932      492.67256    
   3581000   173.99522     -18024.141      808.81265    
   3582000   173.8839      -18011.184      818.71581    
   3583000   182.87375     -17977.238      830.21339    
   3584000   184.80778     -17946.955      698.8758     
   3585000   170.03035     -18012.881      105.50527    
   3586000   170.97451     -18027.338      437.95487    
   3587000   188.91561     -17928.404      985.81087    
   3588000   180.26005     -17971.467      774.96707    
   3589000   181.78841     -18001.24       307.02146    
   3590000   175.09153     -18009.111      531.6715     
   3591000   186.92634     -17946.296      709.97136    
   3592000   171.41494     -17979.469      521.51792    
   3593000   173.20226     -18011.414      368.71973    
   3594000   180.44019     -18014.557      459.96497    
   3595000   177.80005     -18000.882      702.20658    
   3596000   172.49232     -18006.574      558.71651    
   3597000   180.79087     -18022.647      229.31217    
   3598000   177.19189     -18012.499      418.65625    
   3599000   179.69271     -18025.788      231.60394    
   3600000   176.74982     -17990.38       373.92376    
   3601000   185.2689      -18008.159      393.97903    
   3602000   181.47695     -18009.125      805.07219    
   3603000   173.76713     -18048.149      381.36218    
   3604000   167.62263     -18056.348      485.82406    
   3605000   178.05041     -18017.344      393.73758    
   3606000   188.36629     -18004.742      634.20764    
   3607000   174.56302     -18033.258      169.28828    
   3608000   180.79705     -18048.515     -103.33628    
   3609000   183.60104     -18013.6        647.97659    
   3610000   178.09625     -18020.149      364.55168    
   3611000   171.92136     -18050.088      327.87015    
   3612000   177.81321     -18031.978      337.02004    
   3613000   186.83067     -18007.154      677.98462    
   3614000   178.8711      -17958.417      1096.2841    
   3615000   170.76076     -17995.81       1037.4041    
   3616000   176.97454     -18011.557      722.15182    
   3617000   183.18095     -18002.681      213.59794    
   3618000   179.80068     -17970.382      537.03067    
   3619000   176.77893     -17997.805      926.96348    
   3620000   172.96087     -18026.588      160.96134    
   3621000   174.87004     -18018.103      495.97992    
   3622000   171.31847     -17978.087      744.05531    
   3623000   182.86998     -18003.583      385.90117    
   3624000   178.21588     -18019.557      549.56991    
   3625000   170.06085     -17997.783      557.84246    
   3626000   185.52144     -17958.997      598.53841    
   3627000   176.79942     -17975.966      797.14702    
   3628000   173.21736     -18019.859      655.17626    
   3629000   182.55704     -18002.72       865.89148    
   3630000   181.83117     -17970.098      635.41677    
   3631000   177.78121     -17989.499      383.9123     
   3632000   175.13365     -18040.356      566.91151    
   3633000   175.27147     -18013.691      400.60129    
   3634000   177.2591      -17996.569      36.668919    
   3635000   182.71626     -17979.133      565.73058    
   3636000   179.13075     -18004.19       456.75424    
   3637000   178.48589     -18006.939      496.84262    
   3638000   181.53055     -17963.36       598.61875    
   3639000   176.65997     -18003.981      735.65954    
   3640000   169.29623     -17992.741      754.69418    
   3641000   184.11774     -17959.541      833.1129     
   3642000   163.15984     -18046.316      566.16703    
   3643000   180.50203     -18006.481      491.67887    
   3644000   182.80213     -17991.702      459.61972    
   3645000   174.94155     -17999.526      1000.9932    
   3646000   170.14493     -18064.143      160.27476    
   3647000   169.82269     -18021.051      641.45715    
   3648000   175.89295     -18005.717      569.55322    
   3649000   183.7778      -17977.373      578.30135    
   3650000   171.86155     -18013.335      645.93959    
   3651000   171.31164     -17999.88       697.06693    
   3652000   183.0361      -17989.84       320.93661    
   3653000   176.92879     -18016.01       580.95097    
   3654000   167.90163     -18032.809      630.49118    
   3655000   181.42157     -17969.987      641.9489     
   3656000   182.33251     -17960.677      741.9907     
   3657000   170.62065     -17998.923      807.27218    
   3658000   182.16126     -18014.847      607.34248    
   3659000   175.15234     -17991.628      691.90625    
   3660000   183.63066     -17976.383      633.81278    
   3661000   171.25262     -18011.333      681.68164    
   3662000   189.40676     -17997.334      554.23116    
   3663000   177.57771     -18004.414      549.21997    
   3664000   169.97561     -18042.337      555.14102    
   3665000   175.79892     -18024.756      570.5159     
   3666000   180.63894     -17977.233      789.92224    
   3667000   175.01145     -18001.708      1080.3446    
   3668000   167.50617     -18033.629      628.4613     
   3669000   178.71264     -18002.327      621.39784    
   3670000   185.19369     -17965.164      843.87679    
   3671000   186.90957     -17994.771      497.59539    
   3672000   174.70004     -18001.572      476.07727    
   3673000   175.50668     -18005.673      78.15248     
   3674000   184.00129     -17961.416      884.06802    
   3675000   180.73439     -17979.669      583.26813    
   3676000   182.5849      -17971.32       1414.3488    
   3677000   176.1411      -17958.396      729.74976    
   3678000   183.32364     -17981.387      618.00144    
   3679000   173.41424     -18006.78       521.88287    
   3680000   182.27961     -17999.7        153.71519    
   3681000   181.87672     -17988.391      342.94745    
   3682000   194.33518     -17938.998      1236.0488    
   3683000   194.66885     -17963.009      524.6407     
   3684000   178.76233     -17970.76       1046.1079    
   3685000   168.86131     -18035.52       594.21683    
   3686000   185.53363     -17982.335      943.92335    
   3687000   179.80421     -17997.198      736.96637    
   3688000   174.8134      -18011.513      431.64702    
   3689000   177.38882     -17993.783      606.85581    
   3690000   178.53784     -17965.164      1010.7761    
   3691000   181.99746     -17947.812      577.73402    
   3692000   174.78517     -18005.445      688.25261    
   3693000   182.44598     -17962.465      559.40427    
   3694000   179.21573     -17967.148      858.31696    
   3695000   170.83272     -18011.397      482.62529    
   3696000   174.90151     -18013.109      560.40981    
   3697000   175.32888     -18009.509      558.91845    
   3698000   184.78313     -17917.157      879.87766    
   3699000   178.59825     -17988.86       701.19482    
   3700000   176.85318     -18000.836      475.9605     
   3701000   190.76323     -17971.29       576.18703    
   3702000   183.18985     -17963.034      911.9167     
   3703000   168.16274     -17980.4        1158.7963    
   3704000   169.71789     -18032.791      720.19361    
   3705000   184.36485     -18015.344      994.49918    
   3706000   177.63595     -17976.46       864.38543    
   3707000   169.88894     -18016.711      658.79844    
   3708000   173.41795     -18026.615      643.40912    
   3709000   179.42278     -17984.531      1015.1925    
   3710000   176.35196     -17982.342      469.51739    
   3711000   176.78934     -18011.873      740.08024    
   3712000   176.41458     -18028.89       334.28439    
   3713000   174.10623     -18018.335      535.71225    
   3714000   179.84477     -17981.413      889.36297    
   3715000   183.43156     -17976.791      677.84282    
   3716000   177.54213     -17999.517      619.37982    
   3717000   177.15408     -18000.996      322.07192    
   3718000   178.61893     -17992.468      472.90147    
   3719000   183.81065     -17955.199      1035.7144    
   3720000   180.30947     -17959.861      1147.2256    
   3721000   175.65508     -17994.94       945.47304    
   3722000   177.51972     -17975.961      1198.5676    
   3723000   184.06859     -17958.157      1127.5919    
   3724000   178.68624     -17993.102      705.65857    
   3725000   172.99704     -18033.137      649.70986    
   3726000   170.41841     -18054.981      588.95621    
   3727000   180.00195     -17990.402      460.71907    
   3728000   182.12121     -17971.114      737.12685    
   3729000   181.83847     -17981.368      386.09908    
   3730000   175.42466     -18024.332      654.50674    
   3731000   174.94433     -18022.709      876.38561    
   3732000   183.97495     -18002.836      589.52207    
   3733000   171.16855     -17980.312      494.96076    
   3734000   177.01779     -18004.403      501.09767    
   3735000   181.22197     -17978.13       1069.2441    
   3736000   180.79278     -18000.747      206.77699    
   3737000   182.53322     -18022.167      48.688849    
   3738000   165.17635     -18062.62       100.56072    
   3739000   175.78785     -18001.915      222.14291    
   3740000   185.71708     -18029.107      398.04621    
   3741000   178.483       -17996.903      568.52417    
   3742000   182.79837     -17986.954      494.03456    
   3743000   189.08875     -17950.635      464.10209    
   3744000   185.39535     -17975.293      479.48277    
   3745000   179.763       -17997.62       808.26256    
   3746000   181.95679     -18008.276      609.52708    
   3747000   176.82127     -18011.744      1325.908     
   3748000   184.55297     -17950.815      993.15681    
   3749000   183.93638     -17977.268      671.95133    
   3750000   177.27691     -17998.231      501.44727    
   3751000   175.64547     -18013.731      565.31425    
   3752000   170.00842     -18046.821      459.30353    
   3753000   182.59698     -17994.252      715.87738    
   3754000   181.58736     -17988.157      592.83553    
   3755000   179.20716     -18005.588      655.2417     
   3756000   169.85555     -18007.976      444.63845    
   3757000   166.74784     -18040.966      991.58336    
   3758000   177.90051     -18006.742      214.54055    
   3759000   181.91401     -17988.083      454.37689    
   3760000   183.80037     -17983.841      681.39159    
   3761000   168.46406     -18053.408      400.52567    
   3762000   172.29841     -18046.675      751.42528    
   3763000   179.04885     -17998.226      891.4654     
   3764000   174.97182     -18020.118      275.24088    
   3765000   172.51367     -18022.5        299.34104    
   3766000   177.96886     -17972.738      742.56642    
   3767000   176.77725     -17979.289      469.84762    
   3768000   171.87591     -18055.908      322.55027    
   3769000   181.15269     -17974.042      649.74834    
   3770000   181.12565     -17976.053      830.07255    
   3771000   167.50813     -18065.943      516.7464     
   3772000   174.5757      -18022.633      331.97582    
   3773000   182.5453      -17986.458      1071.6607    
   3774000   169.91329     -18044.896      679.57741    
   3775000   172.88046     -18012.606      616.72277    
   3776000   176.5366      -18002.18       1190.5992    
   3777000   177.74118     -17998.54       772.84448    
   3778000   179.85179     -17980.678      1048.4271    
   3779000   172.55254     -18041.036     -67.934665    
   3780000   178.46191     -17975.457      510.52496    
   3781000   188.4425      -17973.167      546.76635    
   3782000   186.69006     -17963.804      646.16333    
   3783000   174.3344      -18009.608      654.3149     
   3784000   175.96544     -18012.608      244.57527    
   3785000   164.42285     -18022.216      314.46938    
   3786000   183.35219     -17976.461      529.72761    
   3787000   167.70741     -18011.251      483.49841    
   3788000   169.42325     -18032.214      509.76868    
   3789000   181.3441      -18002.197      544.69666    
   3790000   177.89613     -17994.666      580.43543    
   3791000   175.99532     -17983.615      573.39073    
   3792000   178.64259     -17992.126      785.99477    
   3793000   172.93229     -17993.413      222.32309    
   3794000   165.30262     -18020.729      596.60863    
   3795000   170.82297     -18033.645      702.8834     
   3796000   176.17376     -18028.182      472.79212    
   3797000   175.36708     -18005.863      231.83112    
   3798000   176.85949     -18005.301      909.28665    
   3799000   177.31856     -18031.486      612.27067    
   3800000   177.34331     -18043.197      244.04578    
   3801000   180.68926     -17988.014      814.22257    
   3802000   180.09697     -17985.192      738.3247     
   3803000   179.28923     -18027.548      670.42145    
   3804000   183.36818     -17988.326      531.71812    
   3805000   185.55145     -17965.788      613.45586    
   3806000   170.57403     -18021.036      516.00839    
   3807000   165.46235     -18015.167      833.22927    
   3808000   189.44571     -17999.482      290.58191    
   3809000   181.18488     -18020.768      723.74784    
   3810000   179.55645     -17967.987      698.49267    
   3811000   186.33312     -17962.788      754.1752     
   3812000   170.69824     -18019.207      483.11729    
   3813000   178.27577     -18032.922      457.76657    
   3814000   169.96567     -18049.903      663.54796    
   3815000   172.78605     -18015.096      682.06607    
   3816000   178.47563     -17994.648      96.419002    
   3817000   178.08006     -18022.054      224.72253    
   3818000   175.22269     -18007.582      536.90774    
   3819000   185.10055     -17989.266      826.82564    
   3820000   173.73221     -18021.061      270.72552    
   3821000   188.06575     -17944.197      813.67437    
   3822000   188.45041     -17958.093      487.47847    
   3823000   171.86947     -18019.011      523.99955    
   3824000   179.80593     -18018.773      774.1158     
   3825000   184.08727     -17954.399      984.1192     
   3826000   189.17647     -17948.397      521.19795    
   3827000   183.13362     -17997.42       625.92524    
   3828000   176.54497     -18014.064      257.4188     
   3829000   174.53094     -18004.256      666.766      
   3830000   188.55234     -17964.154      284.86818    
   3831000   186.05819     -17958.941      899.7244     
   3832000   183.98533     -17985.893      751.39595    
   3833000   164.70087     -18048.274      374.48593    
   3834000   165.28879     -18031.49       808.78003    
   3835000   176.83206     -17997.118      774.05106    
   3836000   186.93484     -18002.701      216.34539    
   3837000   182.31957     -17964.343      303.86551    
   3838000   176.78519     -17978.558      386.97025    
   3839000   177.90779     -18011.565      800.72602    
   3840000   179.83728     -17980.838      437.88831    
   3841000   180.4983      -18015.689      144.49549    
   3842000   182.38491     -17944.409      925.54622    
   3843000   190.08095     -17958.934      824.04788    
   3844000   179.90207     -17990.216      732.57363    
   3845000   169.48843     -18025.566      632.75476    
   3846000   177.81224     -18014.717      423.86574    
   3847000   173.91461     -18007.05       647.8715     
   3848000   176.40842     -17970.866      751.02205    
   3849000   172.12898     -18038.714      262.01966    
   3850000   170.19118     -18021.657      465.86369    
   3851000   178.31332     -18002.634      329.6915     
   3852000   177.80188     -18006.647      557.67638    
   3853000   189.39365     -17946.554      394.31385    
   3854000   182.84148     -17949.637      316.26538    
   3855000   172.54212     -18005.374      490.87613    
   3856000   177.5945      -18011.606      782.586      
   3857000   174.41391     -17995.308      795.46194    
   3858000   187.21163     -17926.093      849.86866    
   3859000   167.22216     -18001.571      861.10894    
   3860000   170.39467     -17996.818      1007.0475    
   3861000   185.94716     -17950.238      1165.5072    
   3862000   183.90091     -17962.755      850.44954    
   3863000   172.13501     -18005.131      712.41973    
   3864000   183.87255     -17973.404      385.76564    
   3865000   177.02778     -17977.432      853.82338    
   3866000   176.72853     -18000.672      728.68259    
   3867000   177.19982     -17965.744      915.88454    
   3868000   179.22555     -17947.213      1022.4091    
   3869000   169.95508     -17964.152      1145.095     
   3870000   172.11696     -18019.959      511.4413     
   3871000   172.19706     -18000.948      1073.1445    
   3872000   187.1187      -17920.79       673.58224    
   3873000   173.00027     -18003.527      1094.7623    
   3874000   179.34283     -18001.978      707.38844    
   3875000   172.74358     -18012.854      559.52901    
   3876000   187.06421     -17994.788      758.68691    
   3877000   182.36969     -17989.48       774.39863    
   3878000   187.44237     -17956.871      660.21363    
   3879000   181.7834      -17927.252      1338.1475    
   3880000   177.18924     -17989.305      1051.5765    
   3881000   178.04659     -17991.516      793.19951    
   3882000   172.68903     -18015.753      708.50879    
   3883000   174.72713     -18054.042      510.95091    
   3884000   170.73131     -18039.466      373.57481    
   3885000   180.3716      -18001.896      989.70862    
   3886000   181.56499     -17993.776      911.7256     
   3887000   185.82396     -17976.794      598.68172    
   3888000   177.0554      -18015.3        601.26173    
   3889000   175.52538     -18009.571      438.0274     
   3890000   184.17744     -17980.535      957.81673    
   3891000   173.22144     -17972.614      1353.4369    
   3892000   173.59828     -18019.78       624.42811    
   3893000   176.18233     -18025.524      605.44101    
   3894000   174.77651     -18012.632      1065.0115    
   3895000   184.72875     -17982.844      756.93665    
   3896000   180.32757     -18003.66       786.17367    
   3897000   167.84123     -18056.557      762.97853    
   3898000   165.81711     -18025.278      332.8648     
   3899000   172.21513     -18011.582      1007.9931    
   3900000   167.95461     -17991.717      1048.7658    
   3901000   185.35294     -17959.019      666.57346    
   3902000   178.16185     -17987.831      594.03144    
   3903000   174.3882      -18020.889      906.84987    
   3904000   181.61699     -17979.924      661.3359     
   3905000   173.79099     -17993.57       696.99152    
   3906000   179.67072     -18022.147      730.11425    
   3907000   183.10284     -17987.88       918.13544    
   3908000   188.70001     -17957.301      1300.4489    
   3909000   181.9004      -18002.846      562.38266    
   3910000   177.53408     -18014.908      915.07714    
   3911000   173.63043     -18034.575      174.43656    
   3912000   173.06058     -17992.701      524.77961    
   3913000   168.56126     -18064.891      191.99961    
   3914000   169.54702     -18039.231      516.92634    
   3915000   179.18147     -17998.694      834.94094    
   3916000   187.31036     -17981.759      89.607916    
   3917000   176.11932     -17981.555      918.75633    
   3918000   181.00438     -18011.497      819.85266    
   3919000   179.7017      -18018.16       465.02576    
   3920000   178.58775     -17989.621      657.72005    
   3921000   193.25133     -17976.741      88.77938     
   3922000   178.34909     -18004.572      842.78293    
   3923000   182.5112      -18022.38       354.22035    
   3924000   179.07403     -17991.724      567.29375    
   3925000   184.48291     -17977.929      552.76427    
   3926000   170.49833     -18018.296      701.65648    
   3927000   175.17476     -18021.052      536.89346    
   3928000   196.35886     -17983.896      407.72668    
   3929000   185.6369      -17988.608      546.75394    
   3930000   181.72168     -17989.068      403.71988    
   3931000   176.27757     -18017.665      461.46138    
   3932000   173.08617     -18060.147      591.77135    
   3933000   172.28982     -18044.614      441.53844    
   3934000   191.8483      -18007.823      154.35527    
   3935000   172.24359     -18038.162      437.92216    
   3936000   175.6947      -18050.044      152.69723    
   3937000   181.4531      -18014.906      323.93903    
   3938000   177.31194     -18006.032      605.68776    
   3939000   174.9184      -18024.19       891.98683    
   3940000   178.3842      -18020.719      30.419068    
   3941000   176.70934     -18023.017      678.0048     
   3942000   191.22634     -17951.237      822.07113    
   3943000   178.32469     -18010.048      683.31948    
   3944000   174.7951      -18039.796      429.08046    
   3945000   177.60101     -18046.048      470.84672    
   3946000   183.69723     -18007.931      731.56572    
   3947000   177.77046     -18045.229      453.85108    
   3948000   170.24657     -18060.548      381.11082    
   3949000   183.46034     -18018.123      651.15927    
   3950000   172.60453     -18000.596      697.34288    
   3951000   180.42593     -18024.712      145.95968    
   3952000   173.5161      -18036.869      674.48417    
   3953000   186.27507     -18029.641      32.604512    
   3954000   167.83281     -18032.162      523.86178    
   3955000   178.11825     -17989.14       712.17032    
   3956000   177.42469     -17959.654      518.92964    
   3957000   178.15389     -18039.798      555.10196    
   3958000   175.96099     -18026.664      72.77783     
   3959000   195.84053     -17958.857      685.14347    
   3960000   187.19477     -17993.909      97.615493    
   3961000   179.29011     -18014.689      329.69114    
   3962000   184.6453      -18026.004      399.48263    
   3963000   165.36896     -18078.327      722.36464    
   3964000   178.60368     -18036.014      324.98661    
   3965000   187.17907     -17994.295      862.04255    
   3966000   180.25496     -18010.755      741.10259    
   3967000   172.47648     -18066.363      671.20541    
   3968000   178.21377     -18020.38       724.04065    
   3969000   177.86094     -18036.936      455.42344    
   3970000   180.23083     -18014.941      741.34654    
   3971000   170.16929     -18078.199     -131.17945    
   3972000   177.73165     -18027.608      199.51744    
   3973000   184.89449     -18005.328      361.33191    
   3974000   176.67704     -18007.021      432.76254    
   3975000   180.92092     -18025.283      561.38217    
   3976000   180.42737     -18030.81       811.17506    
   3977000   180.83114     -18067.191     -119.22034    
   3978000   174.68693     -18023.731      705.28755    
   3979000   179.79895     -17986.445      902.01422    
   3980000   177.5891      -18011.909      708.15947    
   3981000   174.27561     -18037.57       263.1672     
   3982000   181.67097     -18005.649      715.50751    
   3983000   182.77678     -17994.478      836.63458    
   3984000   186.61892     -18007.965      509.96037    
   3985000   169.00881     -18113.618     -95.914324    
   3986000   180.36175     -18016.086      861.96793    
   3987000   172.68194     -18016.816      975.03943    
   3988000   172.13409     -18049.913      276.8334     
   3989000   173.77447     -18092.041      391.03703    
   3990000   172.21575     -18052.209      500.08207    
   3991000   172.10043     -18016.338      683.56651    
   3992000   175.04551     -18007.511      645.00136    
   3993000   180.02526     -18029.671      660.58897    
   3994000   178.67947     -18032.888      301.63642    
   3995000   178.95103     -17997.674      1029.8104    
   3996000   181.07988     -17997.242      516.06138    
   3997000   175.93975     -18030.778      312.80012    
   3998000   172.99089     -18002.453      696.2154     
   3999000   191.2528      -17960.634      621.46971    
   4000000   187.43785     -18013.175      519.86328    
   4001000   181.72252     -17992.873      580.67995    
   4002000   186.30343     -18001.419      1173.1416    
   4003000   171.54823     -18049.618      743.61523    
   4004000   180.33965     -18062.391      497.30654    
   4005000   174.35658     -18033.592      414.05347    
   4006000   175.40862     -18001.806      492.19838    
   4007000   178.32385     -18000.994      1001.5603    
   4008000   162.50512     -18107.949      558.23461    
   4009000   175.56587     -18008.449      434.51659    
   4010000   182.74894     -18002.402      501.39885    
   4011000   192.32199     -17976.724      510.75917    
   4012000   174.09076     -18026.757      569.59089    
   4013000   175.37841     -18046.269      248.94684    
   4014000   180.9277      -18033.287      970.67235    
   4015000   196.40062     -17947.279      891.02811    
   4016000   173.81369     -18024.67       632.87924    
   4017000   170.27298     -18050.527      646.14637    
   4018000   182.62819     -17984.167      590.3813     
   4019000   175.02514     -17981.19       966.64243    
   4020000   179.57626     -18022.368      554.88302    
   4021000   163.48287     -18048.355      767.74661    
   4022000   185.19856     -18014.811      609.14294    
   4023000   182.96237     -17987.098      692.86169    
   4024000   183.65108     -18021.141      821.11058    
   4025000   172.82914     -18028.188      640.90644    
   4026000   181.72263     -18002.627      911.82155    
   4027000   173.74696     -18084.613      277.46848    
   4028000   176.98331     -18056.037      299.44517    
   4029000   178.57701     -18026.661      779.56278    
   4030000   176.85933     -18046.948      682.85684    
   4031000   182.43872     -18039.71       520.57495    
   4032000   183.02749     -18009.012      342.00709    
   4033000   177.06617     -18021.068      504.01352    
   4034000   183.47343     -18011.629      620.9731     
   4035000   181.48666     -18040.34       605.9444     
   4036000   186.02867     -17985.441      834.18492    
   4037000   184.26062     -17971.278      799.88679    
   4038000   182.39456     -17993.864      720.46183    
   4039000   177.20457     -18043.147      376.32723    
   4040000   179.38353     -18039.338      270.23143    
   4041000   176.67053     -18041.661      771.3687     
   4042000   177.61673     -18021.373      1055.0883    
   4043000   177.66984     -18014.767      392.00982    
   4044000   169.36345     -18032.512      752.70822    
   4045000   173.812       -18072.286      324.45715    
   4046000   168.27848     -18080.744      510.7425     
   4047000   179.94396     -18025.89       173.66629    
   4048000   174.67697     -18028.855      846.8928     
   4049000   181.38473     -18027.68       440.76972    
   4050000   185.91754     -17969.425      622.49644    
   4051000   168.66964     -18060.045      237.43001    
   4052000   178.40947     -18020.007      737.72325    
   4053000   177.31438     -18016.323      748.10282    
   4054000   172.05012     -18068.108      402.87466    
   4055000   173.22732     -18035.488      853.52911    
   4056000   185.54304     -17977.456      339.7681     
   4057000   187.11608     -17998.411      991.9878     
   4058000   177.91226     -18038.785      377.48487    
   4059000   184.72574     -17997.45       504.84442    
   4060000   187.49233     -18015.255      844.14602    
   4061000   181.87098     -18021.417      821.35933    
   4062000   174.00642     -18064.483      437.3833     
   4063000   173.14986     -18042.061      592.64289    
   4064000   191.62245     -17954.817      933.06615    
   4065000   177.59929     -18026.387      615.03986    
   4066000   175.66153     -18046.172      677.08912    
   4067000   178.15069     -18023.556      843.09262    
   4068000   175.69088     -18010.808      755.16373    
   4069000   191.61806     -17968.005      826.77217    
   4070000   171.33828     -18027.749      1076.9894    
   4071000   177.85105     -18059.754      340.13554    
   4072000   169.77042     -18076.654      767.00254    
   4073000   178.04994     -18041.9        557.10354    
   4074000   185.04418     -18013.05       820.0895     
   4075000   174.84832     -18000.403      1099.9882    
   4076000   170.09243     -18027.085      758.31747    
   4077000   168.66053     -18050.211      449.8005     
   4078000   178.27832     -18061.622      334.37062    
   4079000   177.72522     -18028.989      239.68837    
   4080000   185.83255     -17997.454      944.84792    
   4081000   179.73879     -18024.701      689.04343    
   4082000   177.5712      -18046.557      366.65044    
   4083000   178.72428     -18023.428      920.02541    
   4084000   188.18809     -18029.117      918.96731    
   4085000   172.37042     -18046.042      322.45449    
   4086000   165.40638     -18081.846      647.04187    
   4087000   168.63462     -18065.32       322.88446    
   4088000   181.53578     -18026.399      827.65821    
   4089000   183.00069     -18005.278      429.77074    
   4090000   178.2078      -17998.719      405.04469    
   4091000   183.72523     -18008.386      692.03955    
   4092000   168.041       -18041.484      369.57912    
   4093000   178.29714     -18038.938      549.05858    
   4094000   182.8247      -18013.422      668.4049     
   4095000   190.32587     -17991.52       648.17331    
   4096000   183.26158     -17992.128      604.53248    
   4097000   177.07048     -18042.114      464.32911    
   4098000   175.06426     -18061.988      128.53775    
   4099000   188.35873     -17963.521      240.53599    
   4100000   174.6646      -18003.635      581.91416    
   4101000   179.22823     -18027.968      398.34327    
   4102000   176.46779     -18048.986      389.78975    
   4103000   185.97467     -18016.913      127.42099    
   4104000   175.37793     -18019.089      862.36       
   4105000   174.85639     -18064.196      224.59517    
   4106000   173.6889      -18022.213      365.50188    
   4107000   177.45874     -18010.636      252.41815    
   4108000   172.10965     -18050.122      321.97971    
   4109000   172.33496     -18063.149      114.82936    
   4110000   181.03008     -18035.211      429.22674    
   4111000   173.80448     -18044.095      552.02317    
   4112000   170.65687     -18066.296     -68.8634      
   4113000   180.12551     -18022.128      496.24369    
   4114000   182.19661     -18025.647      405.20337    
   4115000   174.08646     -18058.034      773.32298    
   4116000   179.41486     -18053.859      373.11113    
   4117000   179.73028     -17998.424      428.73205    
   4118000   179.4827      -18018.71       506.88502    
   4119000   174.5921      -18042.575      682.19186    
   4120000   175.49116     -18039.606      474.95508    
   4121000   181.89402     -18009.728      368.78206    
   4122000   190.24511     -17984.934      694.49375    
   4123000   181.25971     -17976.697      799.30036    
   4124000   178.03615     -18014.832      268.92049    
   4125000   171.6588      -18037.79       531.61174    
   4126000   176.87446     -18036.529      516.18147    
   4127000   176.68337     -18053.715      478.20247    
   4128000   168.61414     -18074.666      683.16381    
   4129000   173.8839      -18044.191      592.15552    
   4130000   174.48982     -18020.831      769.38495    
   4131000   181.35765     -18028.756      417.53006    
   4132000   169.93365     -18035.13       442.29438    
   4133000   180.92223     -18002.629      608.21211    
   4134000   176.35049     -18016.679      464.33081    
   4135000   173.62252     -18027.674      665.70649    
   4136000   169.24359     -18062.447      468.25228    
   4137000   166.94107     -18043.742      612.75071    
   4138000   182.71706     -18025.228      100.0582     
   4139000   183.29623     -17988.713      408.36558    
   4140000   183.94443     -17998.502      610.8096     
   4141000   177.89501     -18016.593      278.5529     
   4142000   172.34137     -18047.251      709.40633    
   4143000   178.68141     -18019.995      665.89693    
   4144000   166.49902     -18081.831      596.32861    
   4145000   179.26101     -18048.615      372.89606    
   4146000   179.18414     -18027.733      570.3312     
   4147000   182.80745     -18019.546      629.20944    
   4148000   180.01605     -17979.698      1085.9927    
   4149000   172.39268     -18005.416      963.94842    
   4150000   178.16064     -18033.857      700.33332    
   4151000   175.70595     -18045.682      62.200367    
   4152000   177.55334     -18032.445      81.318783    
   4153000   175.67141     -18029.136      554.34849    
   4154000   175.8124      -18025.322      541.31814    
   4155000   166.43643     -18052.726      594.0671     
   4156000   175.20967     -18070.955      518.19022    
   4157000   176.59762     -18057.675      174.73451    
   4158000   184.77511     -18018.048      542.84812    
   4159000   177.89569     -18016.962      682.36693    
   4160000   176.58014     -18064.983      296.09428    
   4161000   177.65562     -18033.528      610.52731    
   4162000   180.47252     -18028.302      756.93848    
   4163000   187.68878     -17989.906      463.18737    
   4164000   183.73447     -17996.236      618.97773    
   4165000   180.06651     -18036.312      168.9467     
   4166000   179.07714     -18058.987      221.10633    
   4167000   175.50863     -18061.559      719.09164    
   4168000   172.58912     -18066.506      567.62922    
   4169000   173.79311     -18012.011      576.32837    
   4170000   182.57909     -17999.673      917.31588    
   4171000   169.6309      -18056.881      427.69466    
   4172000   176.20298     -18075.918      435.59293    
   4173000   179.35864     -18027.909      446.61162    
   4174000   181.23986     -18000.008      501.72882    
   4175000   176.5332      -18006.862      539.89012    
   4176000   180.52498     -18014.104      562.02949    
   4177000   176.57131     -18027.458      465.52206    
   4178000   173.12628     -18057.834      312.86613    
   4179000   181.14041     -18033.914      303.18717    
   4180000   178.58844     -18002.334      384.16895    
   4181000   174.90096     -18033.118      247.88668    
   4182000   179.96944     -18051.615      437.85885    
   4183000   171.60171     -18038.539      521.15442    
   4184000   182.34043     -17999.963      446.53764    
   4185000   182.01846     -17997.429      753.73408    
   4186000   175.99652     -18026.084      632.84606    
   4187000   164.32467     -18068.343      613.01657    
   4188000   178.03168     -18067.152      371.58267    
   4189000   178.2586      -18028.284      378.43775    
   4190000   184.20651     -18012.61       598.96631    
   4191000   179.12417     -17992.025      1107.8142    
   4192000   171.64371     -18035.08       699.26627    
   4193000   168.08292     -18036.87       500.34472    
   4194000   179.75467     -18055.267      207.55176    
   4195000   163.37157     -18058.544      417.56399    
   4196000   176.38506     -17992.285      101.24808    
   4197000   179.02484     -17993.742      1143.2625    
   4198000   181.54963     -18023.529      78.386777    
   4199000   172.82999     -17998.558      476.42563    
   4200000   174.14417     -18005.813      484.39318    
   4201000   177.15273     -18033.379      600.69378    
   4202000   176.18444     -18074.911      589.90631    
   4203000   181.95441     -18012.707      163.37291    
   4204000   180.75642     -18014.261      208.92001    
   4205000   172.60733     -18027.82       741.4281     
   4206000   170.00435     -18062.573      71.680392    
   4207000   167.17438     -18045.906      245.777      
   4208000   173.40902     -18024.68       874.14673    
   4209000   176.69718     -18055.048      425.04925    
   4210000   177.47743     -18042.959      324.19106    
   4211000   177.78818     -18018.141      439.02206    
   4212000   184.80492     -17974.241      405.41233    
   4213000   181.4417      -17970.567      578.87465    
   4214000   176.60248     -18039.004      407.40223    
   4215000   178.98344     -18036.677      477.47828    
   4216000   181.38933     -18014.615      735.46437    
   4217000   169.60646     -18069.655      267.69465    
   4218000   174.56013     -18051.126      514.17314    
   4219000   181.48041     -18035.804      238.85496    
   4220000   184.63491     -18010.966      348.31816    
   4221000   190.50474     -17956.194      395.20403    
   4222000   177.28624     -18024.391      783.29924    
   4223000   167.92253     -18031.198      727.75206    
   4224000   177.73506     -18020.931      239.41687    
   4225000   180.7798      -17981.801      627.02081    
   4226000   196.09886     -17961.516      1283.4495    
   4227000   172.31817     -18043.24       394.45321    
   4228000   174.92586     -18035.599      475.19409    
   4229000   183.13061     -18001.964      725.84417    
   4230000   178.89179     -18008.996      152.02829    
   4231000   176.74991     -18015.837      947.58524    
   4232000   178.57761     -18033.716      15.296784    
   4233000   164.87118     -18078.317      703.74582    
   4234000   179.86924     -18046.887      560.12371    
   4235000   176.32157     -18007.343      563.92991    
   4236000   188.11447     -18026.843      355.02966    
   4237000   173.76652     -18026.107      844.71928    
   4238000   174.66419     -18059.929      428.93231    
   4239000   180.43921     -18014.141      999.86775    
   4240000   177.5852      -17981.774      745.04866    
   4241000   176.85718     -18026.93       655.56057    
   4242000   169.05466     -18049.651      517.08235    
   4243000   180.99911     -18021.891      575.73266    
   4244000   180.92381     -17989.008      350.7797     
   4245000   183.12685     -17973.817      676.29175    
   4246000   185.94173     -18013.537      211.85124    
   4247000   178.15207     -18044.309      512.49065    
   4248000   171.63961     -18046.34       666.96865    
   4249000   174.5426      -18065.999      214.51947    
   4250000   172.16114     -18040.915      658.25781    
   4251000   186.73724     -18008.232      315.4619     
   4252000   178.95898     -18013.319      636.85831    
   4253000   172.88243     -18056.755      264.02665    
   4254000   173.59301     -18055.781      151.49736    
   4255000   186.4899      -17995.441      147.22151    
   4256000   186.24846     -18005.861      477.13734    
   4257000   175.38138     -18040.14       577.49138    
   4258000   173.50099     -18014.175      763.46532    
   4259000   180.60719     -18007.874      934.3349     
   4260000   187.42557     -18002.242      113.75654    
   4261000   171.51544     -18031.901      984.01071    
   4262000   170.97173     -18040.239      806.54725    
   4263000   183.63034     -18036.617      257.80635    
   4264000   177.84438     -18016.514      625.57205    
   4265000   182.99686     -17999.306      635.26165    
   4266000   164.45216     -18022.692      949.44473    
   4267000   174.88266     -18046.362      430.68594    
   4268000   166.21069     -18063.904      20.591753    
   4269000   185.10285     -17993.877      418.23944    
   4270000   183.86201     -18003.718      573.2116     
   4271000   181.33143     -18042.363     -148.95691    
   4272000   180.6845      -18014.569      391.87643    
   4273000   185.69482     -18009.298      549.44322    
   4274000   182.15321     -18003.143      176.3384     
   4275000   172.46494     -18043.98       441.46042    
   4276000   183.30142     -18008.142      498.32305    
   4277000   178.64145     -18000.495      760.4991     
   4278000   179.4577      -18031.644      561.90228    
   4279000   172.14059     -18062.939      585.19196    
   4280000   184.1622      -18033.151      116.58442    
   4281000   176.80665     -18046.553      515.43622    
   4282000   176.3572      -18063.843      323.63822    
   4283000   171.38629     -18023.655      334.82606    
   4284000   179.89732     -18013.09       559.58852    
   4285000   181.71172     -17991.369      527.01105    
   4286000   168.84808     -18025.463      911.03555    
   4287000   180.38131     -18047.911     -19.840685    
   4288000   180.7076      -18031.637      624.45325    
   4289000   193.88943     -17965.841      613.59518    
   4290000   174.65644     -18029.497      903.64084    
   4291000   178.90632     -18050.274      630.35521    
   4292000   175.17007     -18049.017      542.90348    
   4293000   181.62536     -18031.917      669.81003    
   4294000   179.99927     -18019.164      670.9189     
   4295000   176.74822     -18021.529      811.74017    
   4296000   178.48326     -18060.561      238.47087    
   4297000   169.75895     -18052.726      313.56405    
   4298000   182.04694     -17999.789      915.47468    
   4299000   189.53641     -17993.34       541.80794    
   4300000   175.87683     -18058.15       621.71209    
   4301000   178.44485     -18056.368      258.46919    
   4302000   187.91884     -17960.642      661.69601    
   4303000   178.70129     -18000.791      272.22331    
   4304000   180.68051     -18029.088      501.60499    
   4305000   175.60276     -18066.751      622.94886    
   4306000   174.89034     -18029.398      816.71408    
   4307000   186.34718     -18012.507      291.73365    
   4308000   177.47562     -18024.134      668.16932    
   4309000   176.18901     -18060.143      542.44152    
   4310000   168.54242     -18084.358      411.7732     
   4311000   181.79935     -18006.141      557.48345    
   4312000   181.78033     -18036.256      728.08788    
   4313000   171.94998     -18042.015      685.15466    
   4314000   169.65935     -18044.937      597.1106     
   4315000   180.51572     -18006.794      958.43251    
   4316000   174.4938      -18024.784      721.8476     
   4317000   171.39582     -18051.045      1040.9382    
   4318000   175.39166     -18058.514      494.84815    
   4319000   180.37296     -18078.266      52.969109    
   4320000   176.86785     -18017.461      642.36945    
   4321000   181.4096      -18017.578      767.92136    
   4322000   177.63894     -18015.802      650.56528    
   4323000   183.48576     -18016.954      420.96975    
   4324000   170.61291     -18060.317      347.75669    
   4325000   178.27749     -18065.566      281.902      
   4326000   178.97119     -18040.458      371.27445    
   4327000   181.06288     -18035.382      16.953572    
   4328000   180.19507     -18000.461      393.80991    
   4329000   188.67073     -17988.093      880.06745    
   4330000   183.55148     -17992.788      767.05826    
   4331000   172.13707     -18042.749      650.98971    
   4332000   185.91904     -18013.429      619.99889    
   4333000   177.37704     -18010.593      608.37421    
   4334000   185.12388     -17993.907      691.35708    
   4335000   184.10007     -18010.865      511.45915    
   4336000   174.20992     -18040.317      563.39859    
   4337000   174.66771     -18042.064      339.24933    
   4338000   170.94598     -18044.513      662.07534    
   4339000   178.96959     -18000.315      751.06234    
   4340000   183.02924     -18043.507      583.07443    
   4341000   176.75442     -18027.164      1184.4031    
   4342000   168.92118     -18091.433      541.78953    
   4343000   174.62747     -18030.36       638.13679    
   4344000   181.18792     -18020.226      950.36652    
   4345000   184.77178     -18011.232      768.19303    
   4346000   171.81408     -18063.052      569.83656    
   4347000   168.27625     -18085.098      527.47764    
   4348000   175.12137     -18007.426      558.81264    
   4349000   176.50935     -18018.128      652.54906    
   4350000   186.62054     -18033.653      597.41063    
   4351000   171.87503     -18055.778      570.35583    
   4352000   173.74283     -18049.958      705.17363    
   4353000   164.14239     -18063.261      437.45132    
   4354000   186.2196      -18014.884      366.28698    
   4355000   179.25661     -18035.32       663.46143    
   4356000   176.61884     -18007.512      836.44627    
   4357000   187.85535     -17981.036      448.45417    
   4358000   171.03428     -18029.018      572.02173    
   4359000   177.72199     -18057.54       433.47689    
   4360000   172.07074     -18049.798      42.630465    
   4361000   176.46669     -18024.409      543.85547    
   4362000   181.20118     -18017.109      27.3721      
   4363000   182.26073     -18014.992      666.63649    
   4364000   182.09916     -18019.871      444.87645    
   4365000   167.77913     -18082.643      609.60309    
   4366000   163.79688     -18069.263      391.8268     
   4367000   174.64862     -18040.39       436.5939     
   4368000   188.75603     -18011.727      671.87202    
   4369000   186.71653     -17999.608      547.44196    
   4370000   181.50555     -18002.802      707.90878    
   4371000   169.73316     -18025.134      517.54727    
   4372000   172.30785     -18039.281      477.63663    
   4373000   165.30708     -18091.111      41.859855    
   4374000   174.95801     -18027.036      581.17364    
   4375000   179.1035      -18010.658      223.3112     
   4376000   174.85056     -18068.227      160.26877    
   4377000   171.06983     -18076.645      367.64895    
   4378000   173.45823     -18040.594      918.23737    
   4379000   178.57696     -18012.765      619.82634    
   4380000   184.50191     -18028.746      746.41607    
   4381000   171.60705     -18030.875      770.06407    
   4382000   189.49864     -17961.429      1384.8052    
   4383000   177.75134     -18002.268      479.63704    
   4384000   175.16327     -18038.354      404.76385    
   4385000   180.11988     -18025.223      754.45949    
   4386000   184.09285     -17988.801      667.151      
   4387000   177.55876     -17998.828      836.43182    
   4388000   177.52257     -18035.976      813.41559    
   4389000   178.99254     -18048.783      206.68816    
   4390000   181.0864      -18039.398      196.32314    
   4391000   175.8269      -18014.301      673.46918    
   4392000   186.83697     -18011.101      148.06385    
   4393000   179.55108     -18051.752      638.34324    
   4394000   174.57261     -18078.815      147.96769    
   4395000   176.77541     -18003.494      322.65094    
   4396000   182.81706     -18012.42       640.57858    
   4397000   181.92962     -18033.081      185.11027    
   4398000   172.93515     -18006.739      938.01727    
   4399000   174.55265     -18036.097      585.04865    
   4400000   176.14373     -18072.592     -95.435094    
   4401000   177.95707     -18028.398      483.79928    
   4402000   176.60591     -17995.443      669.29944    
   4403000   171.31734     -18044.456      639.75611    
   4404000   173.19615     -18061.491      707.25435    
   4405000   168.55905     -18025.021      953.36779    
   4406000   183.3163      -18024.931      484.99493    
   4407000   174.28831     -18003.304      416.20389    
   4408000   188.72283     -17995.217      747.92482    
   4409000   178.66625     -17999.936      687.04124    
   4410000   178.97655     -18023.409      481.34367    
   4411000   176.27502     -18005.232      903.71122    
   4412000   190.6621      -17979.986      636.61978    
   4413000   182.67316     -18000.227      742.91995    
   4414000   179.50534     -18003.371      798.48042    
   4415000   172.50863     -18088.061      228.95608    
   4416000   172.72058     -18020.989      645.5556     
   4417000   178.04751     -17998.877      264.08714    
   4418000   178.24242     -18021.919      199.72661    
   4419000   174.52406     -18051.337      353.48275    
   4420000   172.05336     -18046.073      370.03793    
   4421000   183.07623     -18016.022      619.02251    
   4422000   187.85939     -17997.273      581.31482    
   4423000   176.65434     -18026.36       585.19791    
   4424000   175.97295     -18026.828      409.29499    
   4425000   174.54554     -17991.796      614.16404    
   4426000   179.24742     -17985.885      286.85799    
   4427000   172.91089     -18045.484      501.62659    
   4428000   176.65827     -18053.976      555.32493    
   4429000   172.95579     -18031.467      82.554089    
   4430000   177.52277     -17994.364      1029.7765    
   4431000   175.49369     -18059.22       473.65355    
   4432000   177.87205     -18048.794      440.6749     
   4433000   181.93288     -18027.005      708.61114    
   4434000   180.27832     -18004.188      658.10845    
   4435000   177.88703     -18033.831      223.49371    
   4436000   172.76001     -18057.016      689.00871    
   4437000   177.27739     -18026.616      1209.9217    
   4438000   175.42392     -18026.723      791.05502    
   4439000   182.70728     -17986.753      949.67493    
   4440000   179.56217     -18017.581      503.89213    
   4441000   174.84367     -18045.785      484.82686    
   4442000   175.07592     -18026.208      780.90541    
   4443000   182.59807     -17981.858      642.97217    
   4444000   185.4019      -17960.995      1026.9394    
   4445000   171.88402     -18015.496      839.23197    
   4446000   177.33858     -18015.228      699.93905    
   4447000   179.78701     -18046.34       399.19948    
   4448000   180.80934     -17987.319      732.86682    
   4449000   186.03221     -17995.558      993.99117    
   4450000   180.23111     -18031.954      691.19913    
   4451000   178.90807     -18035.312      504.56777    
   4452000   185.14044     -18006.618      729.45907    
   4453000   193.67451     -17976.704      637.46567    
   4454000   178.33745     -18000.307      432.44937    
   4455000   167.86943     -18030.941      617.0835     
   4456000   170.72577     -18047.418      560.62318    
   4457000   165.46764     -18076.935      686.71016    
   4458000   180.78562     -18031.774      664.1554     
   4459000   181.55926     -18020.457      622.68238    
   4460000   179.40634     -17983.789      462.75442    
   4461000   178.92115     -18023.176      1041.5036    
   4462000   180.57096     -18038.169      314.8622     
   4463000   168.14032     -18081.377      341.08304    
   4464000   180.71838     -18017.042      1053.4924    
   4465000   180.15        -17991.321      830.98104    
   4466000   179.07988     -18011.315      779.63936    
   4467000   173.40686     -18041.419      263.08146    
   4468000   178.67844     -18029.802      256.63646    
   4469000   180.38641     -17981.6        721.84955    
   4470000   181.84763     -17986.384      624.27448    
   4471000   168.17269     -18049.665      463.94816    
   4472000   179.729       -18021.518      625.01131    
   4473000   180.93226     -18007.062      669.45011    
   4474000   184.39713     -18018.371      500.41627    
   4475000   178.88769     -18077.743      7.6188119    
   4476000   175.80055     -18045.78       687.81137    
   4477000   176.65206     -18003.816      686.16619    
   4478000   171.86419     -18026.357      553.71453    
   4479000   173.77118     -18055.032      387.31549    
   4480000   180.10974     -18023.509      653.1912     
   4481000   183.59801     -18021.31       337.10351    
   4482000   171.05623     -18055.031      557.31242    
   4483000   168.25932     -18050.923      561.13975    
   4484000   184.88733     -18018.425      284.02019    
   4485000   181.34964     -17998.176      556.65045    
   4486000   171.46182     -18071.349      576.87009    
   4487000   172.54195     -18067.37       182.42046    
   4488000   171.56451     -18030.217      550.76268    
   4489000   186.82422     -18005.653      342.6315     
   4490000   171.35657     -18021.655      753.41196    
   4491000   173.10849     -18024.729      931.83176    
   4492000   181.9615      -17988.185      1180.9869    
   4493000   182.77719     -18020.272      442.31335    
   4494000   181.88848     -18017.93       568.16431    
   4495000   167.4876      -18083.657      499.81221    
   4496000   182.9453      -18011.873      947.40241    
   4497000   174.8126      -18021.289      497.7554     
   4498000   174.72324     -18073.456      414.26054    
   4499000   168.95122     -18067.991      577.16391    
   4500000   182.60347     -18022.414      1047.7262    
   4501000   173.60822     -18054.089      273.41441    
   4502000   168.54832     -18065.454      714.42174    
   4503000   178.52345     -18005.462      513.47015    
   4504000   181.75414     -18001.221      631.88811    
   4505000   167.70208     -18086.233      472.34168    
   4506000   176.8941      -18039.018      160.3689     
   4507000   185.2895      -18020.557      516.4236     
   4508000   177.37772     -18041.301      755.47632    
   4509000   184.72629     -18081.375     -267.92132    
   4510000   173.49598     -18044.205      1011.8561    
   4511000   177.32065     -18039.902      541.84474    
   4512000   177.11548     -17997.288      301.8373     
   4513000   186.028       -17991.081      859.56091    
   4514000   176.44791     -18032.637      416.80592    
   4515000   174.03296     -18019.654      616.81984    
   4516000   182.82194     -17987.275      290.21907    
   4517000   184.69932     -18015.128      428.16485    
   4518000   174.16864     -18035.313      734.40056    
   4519000   170.96087     -18046.45       648.90247    
   4520000   180.77549     -18063.221      437.42503    
   4521000   177.8128      -18039.594      275.24449    
   4522000   184.10123     -18008.311      529.42092    
   4523000   175.80414     -18019.811      850.83407    
   4524000   172.98282     -18022.181      804.24528    
   4525000   179.9249      -18040.139      713.36858    
   4526000   175.8807      -18029.763      201.31704    
   4527000   191.20826     -17999.09       824.33923    
   4528000   176.50938     -18057.766      601.94884    
   4529000   166.46762     -18074.619      337.68559    
   4530000   181.59245     -17994.921      681.0828     
   4531000   179.80169     -18012.235      687.19569    
   4532000   172.38502     -18053.7        1139.3028    
   4533000   182.12171     -18003.41       970.6926     
   4534000   176.01105     -18021.285      677.37132    
   4535000   173.71191     -18036.589      818.30798    
   4536000   179.70824     -18028.063      1095.048     
   4537000   169.62152     -18062.716      418.17493    
   4538000   174.01535     -18024.109      932.36995    
   4539000   173.09549     -18028.253      491.12666    
   4540000   175.15669     -18022.607      548.72436    
   4541000   170.75295     -18069.882      268.17647    
   4542000   165.01595     -18049.245      1278.1414    
   4543000   181.76129     -18035.356      479.19223    
   4544000   179.58416     -18005.978      496.99258    
   4545000   187.20061     -17958.952      978.47373    
   4546000   177.16736     -18026.115      569.31045    
   4547000   178.11625     -18039.472      602.63737    
   4548000   180.89875     -18021.747      292.3568     
   4549000   175.4871      -18008.292      788.59417    
   4550000   174.78491     -18005.182      982.3615     
   4551000   185.56294     -18043.209      523.1459     
   4552000   168.48786     -18065.607      399.95315    
   4553000   176.47237     -18003.91       947.72858    
   4554000   173.69089     -18015.495      427.64165    
   4555000   176.43555     -18028.396      616.72558    
   4556000   176.46606     -18057.231      519.79315    
   4557000   179.6437      -18037.255      620.48346    
   4558000   171.83369     -18020.268      840.11813    
   4559000   169.73602     -18061.582      358.32807    
   4560000   169.46768     -18052.878      599.54415    
   4561000   187.39447     -18017.961      566.55034    
   4562000   173.77301     -18024.914      419.60548    
   4563000   168.14529     -18054.059      684.45594    
   4564000   182.98035     -18037.677      741.78895    
   4565000   191.86641     -17944.739      1049.7354    
   4566000   176.28772     -18031.808      395.77429    
   4567000   174.48899     -18032.266      313.97112    
   4568000   178.19798     -18049.866      156.18619    
   4569000   166.22429     -18098.243      491.64727    
   4570000   184.66417     -17999.807      754.94567    
   4571000   171.38748     -18044.901      480.58352    
   4572000   176.38277     -18033.519      1008.9587    
   4573000   177.87173     -18023.277      827.7435     
   4574000   171.05351     -18036.549      501.70731    
   4575000   184.47944     -17987.399      746.22772    
   4576000   187.40007     -17984.621      473.94451    
   4577000   183.10246     -18023.378      248.615      
   4578000   186.69357     -18026.885      1002.5409    
   4579000   178.32322     -18022.161      316.13464    
   4580000   188.10103     -17989.916      469.55696    
   4581000   189.44303     -17998.965      851.07465    
   4582000   180.35791     -18024.685      818.43402    
   4583000   176.16145     -18041.491      728.30752    
   4584000   177.87116     -18058.111      654.38789    
   4585000   183.2044      -18020.092      461.62764    
   4586000   184.1684      -18008.001      767.04468    
   4587000   185.03484     -17967.897      954.20042    
   4588000   177.37385     -18021.643      969.54215    
   4589000   172.00101     -18037.681      848.2569     
   4590000   169.234       -18076.645      540.40446    
   4591000   174.40502     -18038.736      604.18951    
   4592000   181.03029     -18020.723      456.34649    
   4593000   175.8339      -18047.173      634.84322    
   4594000   173.2735      -18070.979      801.12106    
   4595000   181.17755     -17995.855      560.53499    
   4596000   178.71034     -18019.276      603.76951    
   4597000   168.11516     -18067.043      846.01255    
   4598000   177.8184      -18026.933      361.37972    
   4599000   180.63737     -17992.214      642.06048    
   4600000   188.36211     -17989.059      332.04478    
   4601000   187.46213     -17956.547      1175.3537    
   4602000   180.50526     -18004.621      728.15135    
   4603000   171.62604     -18026.509      1138.561     
   4604000   175.81345     -18019.054      959.04587    
   4605000   183.39091     -17962.66       800.73685    
   4606000   170.18869     -17952.058      1668.6182    
   4607000   183.4849      -17974.38       1258.8432    
   4608000   178.71715     -17989.353      1196.6424    
   4609000   181.89605     -18008.838      992.0884     
   4610000   171.2326      -17993.959      722.99235    
   4611000   178.52426     -17966.749      956.21942    
   4612000   182.65954     -17965.318      845.10769    
   4613000   178.87397     -17991.012      672.72361    
   4614000   174.58758     -18003.858      814.6776     
   4615000   172.29485     -18014.562      1110.2597    
   4616000   177.05914     -18035.861      1344.7569    
   4617000   166.86095     -18060.761      675.50306    
   4618000   180.03641     -18057.915      636.5155     
   4619000   185.1862      -17971.048      1014.7407    
   4620000   183.06276     -17986.311      923.10731    
   4621000   169.46955     -18015.103      1396.6027    
   4622000   174.41572     -18026.037      844.99251    
   4623000   176.76747     -18051.129      918.86917    
   4624000   177.51521     -18036.377      1114.6235    
   4625000   177.98523     -18044.566      970.51607    
   4626000   172.72332     -18012.629      992.03859    
   4627000   169.88661     -17994.858      818.82062    
   4628000   174.34796     -18032.726      1087.6536    
   4629000   179.02481     -18009.858      915.472      
   4630000   184.54608     -18006.797      994.80752    
   4631000   176.50781     -18003.044      975.75078    
   4632000   185.52004     -18001.124      991.54808    
   4633000   177.16829     -18040.274      810.4702     
   4634000   177.57962     -18038.495      628.63571    
   4635000   178.44896     -18016.629      705.91269    
   4636000   191.21932     -17970.457      883.24844    
   4637000   180.8331      -18008.122      1025.1914    
   4638000   179.7228      -18023.849      1179.8361    
   4639000   184.29265     -18001.023      1125.6947    
   4640000   184.58914     -17950.252      1778.0079    
   4641000   178.5838      -18019.655      1416.2668    
   4642000   173.68366     -18022.613      689.63304    
   4643000   175.27268     -18056.718      1009.7801    
   4644000   165.88884     -18020.13       1003.9966    
   4645000   178.90974     -18017.909      797.31153    
   4646000   164.54182     -18062.379      1137.7526    
   4647000   173.03239     -18061.571      1043.1527    
   4648000   182.36403     -18005.759      1153.2824    
   4649000   169.10691     -18019.189      844.58118    
   4650000   181.69367     -18041.307      638.04113    
   4651000   175.13375     -18045.998      907.23548    
   4652000   173.92308     -17975.671      1174.7079    
   4653000   177.71182     -17968.437      863.08845    
   4654000   173.27107     -18001.178      1205.5411    
   4655000   180.78014     -18021.946      1099.5783    
   4656000   163.12993     -18059.38       403.28926    
   4657000   174.38118     -18069.125      249.50333    
   4658000   178.59611     -18017.742      1047.0316    
   4659000   175.6579      -18029.064      1135.0355    
   4660000   171.97741     -18024.358      1127.4173    
   4661000   187.70557     -17988.763      1275.6086    
   4662000   184.08737     -17989.412      1372.8665    
   4663000   179.93609     -18071.238      358.65746    
   4664000   176.80292     -18026.882      1097.783     
   4665000   180.23594     -18012.511      1126.736     
   4666000   179.64183     -17999.486      1091.7778    
   4667000   172.89144     -18039.9        1150.9158    
   4668000   170.77247     -18029.684      901.6437     
   4669000   181.15626     -17991.982      799.03833    
   4670000   178.32213     -18018.701      1007.1914    
   4671000   179.68149     -18029.838      713.16309    
   4672000   174.84678     -18029.48       827.47751    
   4673000   182.92637     -17968.535      1042.2172    
   4674000   178.00831     -17985.621      1210.0939    
   4675000   171.85918     -18037.788      1241.8895    
   4676000   180.73714     -18014.935      654.47605    
   4677000   181.48604     -18007.909      1297.4372    
   4678000   191.52653     -17939.567      1281.6897    
   4679000   188.66362     -17990.441      1033.4979    
   4680000   173.96823     -18000.613      1230.0691    
   4681000   175.36535     -18019.445      970.80281    
   4682000   175.23807     -17994.902      868.39629    
   4683000   181.08361     -18003.574      843.50449    
   4684000   184.02067     -18002.841      818.38694    
   4685000   181.2738      -17964.973      1045.2557    
   4686000   180.39773     -18001.375      1124.4154    
   4687000   178.44655     -18026.121      841.15011    
   4688000   178.74792     -18015.628      1032.5735    
   4689000   174.26585     -17993.839      901.47386    
   4690000   163.20832     -18057.312      986.10645    
   4691000   179.30769     -18005.26       1396.3199    
   4692000   177.501       -17987.016      1120.1068    
   4693000   188.48806     -17953.507      683.22291    
   4694000   175.31073     -18050.663      584.47741    
   4695000   171.35397     -18071.963      383.86497    
   4696000   184.7947      -18057.732      648.30493    
   4697000   175.57521     -18036.683      651.36735    
   4698000   184.43434     -18030.47       939.93539    
   4699000   190.36153     -18033.488      497.29047    
   4700000   175.04008     -18060.9        413.58585    
   4701000   174.75406     -18053.972      264.79717    
   4702000   175.1626      -18044.335      506.69434    
   4703000   185.73113     -18002.134      568.53267    
   4704000   187.29247     -17995.865      995.00774    
   4705000   176.30433     -18035.296      385.05734    
   4706000   173.05176     -18069.718      231.62483    
   4707000   182.90911     -18027.717      662.72137    
   4708000   183.22434     -17988.271      335.1169     
   4709000   179.33785     -17983.285      1268.89      
   4710000   179.91976     -17990.958      511.49274    
   4711000   172.5249      -17990.62       671.5215     
   4712000   179.72107     -17985.794      543.59221    
   4713000   179.33738     -18012.647      802.42969    
   4714000   177.73109     -18026.086      208.10215    
   4715000   184.89705     -17980.114      557.50111    
   4716000   176.21351     -17963.059      791.28656    
   4717000   187.86766     -17992.561      334.24841    
   4718000   185.98232     -18023.581      730.87676    
   4719000   178.79704     -18043.913      396.01818    
   4720000   163.45797     -18086.973      309.3187     
   4721000   168.0884      -18059.575      401.82958    
   4722000   173.7044      -18028.556      626.73762    
   4723000   191.44383     -18025.203      929.69835    
   4724000   170.55551     -18068.155      751.85422    
   4725000   179.45012     -18077.864      362.16646    
   4726000   172.01926     -18056.892      382.46884    
   4727000   188.28046     -18021.097      606.88082    
   4728000   177.24407     -18045.506      192.108      
   4729000   177.43947     -18080.244     -192.47895    
   4730000   173.84866     -18087.235      316.39548    
   4731000   170.51052     -18100.972      64.574412    
   4732000   179.36649     -18067.93      -27.664683    
   4733000   184.13165     -18051.209     -8.8899517    
   4734000   181.51765     -18087.156      582.93747    
   4735000   173.99844     -18109.324      15.423103    
   4736000   187.18363     -18058.73       353.7745     
   4737000   183.50071     -18021.654      228.36947    
   4738000   183.22572     -18032.9        841.4566     
   4739000   185.55708     -18048.468     -93.782559    
   4740000   172.33003     -18083.373      342.75384    
   4741000   185.06045     -18021.742      319.00334    
   4742000   191.42652     -18002.156      490.34242    
   4743000   183.9417      -18038.734      162.28347    
   4744000   179.71947     -18061.054      195.32295    
   4745000   179.83399     -18077.153      146.59525    
   4746000   174.92887     -18059.545      799.21734    
   4747000   176.87574     -18036.794      118.18924    
   4748000   174.88432     -18079.524     -303.06625    
   4749000   178.79378     -18064.321      293.14459    
   4750000   183.1646      -18065.812      368.11263    
   4751000   183.93181     -18002.125      185.02105    
   4752000   186.01217     -18029.526     -56.413903    
   4753000   181.4966      -18048.991     -22.821324    
   4754000   177.68467     -18077.01      -401.43382    
   4755000   173.23551     -18093.137      208.43041    
   4756000   172.37909     -18108.753      198.60664    
   4757000   169.39302     -18065.14       89.287008    
   4758000   177.60553     -18039.729     -157.16613    
   4759000   181.42011     -18042.358      479.27449    
   4760000   171.19399     -18114.841     -349.18223    
   4761000   176.63735     -18023.742      310.11466    
   4762000   172.46048     -18035.013      424.38923    
   4763000   173.73816     -18093.742      23.386747    
   4764000   173.76712     -18097.649     -88.156432    
   4765000   185.03402     -18035.94       229.22599    
   4766000   182.25958     -18020.686      365.1289     
   4767000   180.55704     -17977.443      926.42038    
   4768000   181.32865     -18035.388      410.80006    
   4769000   179.70041     -18035.654      201.66355    
   4770000   173.23005     -18038.623      1024.1537    
   4771000   189.71948     -18003.071      283.43212    
   4772000   193.56611     -18017.111      654.42835    
   4773000   177.09942     -18074.371     -21.844341    
   4774000   175.59644     -18068.932      424.44391    
   4775000   181.48055     -18009.655      778.66513    
   4776000   177.59905     -18083.1        449.74065    
   4777000   177.37307     -18055.316      540.61295    
   4778000   181.68484     -18052.124      425.18993    
   4779000   183.15645     -18065.458      485.4818     
   4780000   173.04052     -18049.719      638.02111    
   4781000   177.77984     -18019.766      816.42687    
   4782000   185.34599     -18027.209      561.8726     
   4783000   181.94156     -18043.166      430.81963    
   4784000   172.38902     -18040.589      348.16872    
   4785000   181.25471     -18085.163      236.12989    
   4786000   175.45289     -18051.776      719.60002    
   4787000   177.12124     -18036.453      861.73151    
   4788000   179.52777     -18013.15       652.15642    
   4789000   186.472       -17990.673      533.74237    
   4790000   180.10835     -18063.805      759.78123    
   4791000   182.04027     -18053.514      218.84764    
   4792000   171.93526     -18022.237      495.89508    
   4793000   182.06282     -18004.078      745.86924    
   4794000   178.56309     -18032.706      243.46823    
   4795000   180.49907     -18055.016      314.71493    
   4796000   175.33907     -18059.107      725.24343    
   4797000   174.19767     -18044.571      579.92058    
   4798000   175.58803     -18038.218      442.73293    
   4799000   181.03744     -18097.026     -3.7363287    
   4800000   171.00674     -18080.698      145.40367    
   4801000   175.18662     -18062.111      492.0413     
   4802000   183.48967     -18024.528      695.01134    
   4803000   184.21049     -18044.691      85.047941    
   4804000   181.8035      -18009.613      702.61278    
   4805000   179.54858     -18025.43       669.85087    
   4806000   177.22925     -18040.279      448.5723     
   4807000   183.55283     -18010.211      1195.6572    
   4808000   188.14897     -18013.154      312.10843    
   4809000   176.49265     -18056.509      769.21907    
   4810000   175.17448     -18030.808      761.30448    
   4811000   179.32096     -18015.852      794.92586    
   4812000   174.28174     -18078.876      290.20759    
   4813000   170.15583     -18067.862      536.07908    
   4814000   182.00014     -18042.739      334.68832    
   4815000   183.6243      -18046.354      627.13161    
   4816000   181.91401     -18070.889      266.88887    
   4817000   172.95778     -18057.002      700.11587    
   4818000   171.50062     -18056.609      299.00686    
   4819000   179.74479     -18032.801      376.13791    
   4820000   182.48819     -18035.637      920.94535    
   4821000   184.32734     -18008.56       485.89184    
   4822000   184.8294      -18044.264      256.9002     
   4823000   173.53757     -18058.546      660.51499    
   4824000   177.18593     -18079.05       195.99556    
   4825000   178.24776     -18038.061      808.91985    
   4826000   175.82671     -18014.968      827.89491    
   4827000   175.75667     -18016.817      99.052018    
   4828000   177.63208     -18048.085      202.34371    
   4829000   185.31582     -18012.262      979.2691     
   4830000   175.48077     -18034.297      385.67825    
   4831000   169.11869     -18033.641      805.2384     
   4832000   184.55498     -18043.175      492.03677    
   4833000   173.60446     -18031.36       704.45494    
   4834000   180.91789     -18032.273      926.26551    
   4835000   182.38531     -18008.831      544.32402    
   4836000   175.16279     -18043.339      466.90617    
   4837000   165.91868     -18094.278      71.688005    
   4838000   173.14569     -18046.569      269.64494    
   4839000   181.00371     -18015.92       517.42725    
   4840000   184.3754      -18016.824      677.49587    
   4841000   181.01074     -18037.443      457.79232    
   4842000   179.4319      -18063.552      169.96822    
   4843000   182.64099     -18018.72       168.35512    
   4844000   176.42357     -18025.361      104.66235    
   4845000   170.41779     -18056.343      911.61254    
   4846000   164.46821     -18072.8        271.24984    
   4847000   172.26305     -18084.772      282.47762    
   4848000   175.16212     -18024.939      560.3449     
   4849000   177.59912     -18034.406      377.12636    
   4850000   171.0937      -18032.672      556.31081    
   4851000   171.90408     -18033.977      558.56936    
   4852000   172.98966     -18052.03       461.89857    
   4853000   175.11388     -18054.239      619.43686    
   4854000   182.74666     -18050.279      439.7591     
   4855000   190.89742     -17998.498      503.4757     
   4856000   180.63519     -18033.914     -108.57574    
   4857000   182.71475     -18056.079      145.78958    
   4858000   172.47962     -18079.903      129.29481    
   4859000   161.49136     -18084.317      768.43062    
   4860000   181.44493     -18037.709      72.681088    
   4861000   178.39762     -18039.556      325.74884    
   4862000   169.76124     -18059.548      969.86927    
   4863000   177.04713     -18077.724      404.21262    
   4864000   174.45332     -18074.985      313.17956    
   4865000   183.16895     -18053.401      552.72552    
   4866000   184.50144     -18002.586      527.68431    
   4867000   180.39987     -18064.648      428.43549    
   4868000   175.2554      -18042.639      370.01219    
   4869000   182.9503      -18035.949      583.20857    
   4870000   186.20026     -18011.834      455.4783     
   4871000   179.86823     -18072.36       251.78706    
   4872000   176.02746     -18058.545      587.40829    
   4873000   184.87901     -18048.937      591.3094     
   4874000   187.00432     -18013.612      94.226102    
   4875000   183.33607     -18030.321      166.19486    
   4876000   172.1815      -18062.613      260.53978    
   4877000   183.57484     -18039.821      130.5598     
   4878000   169.49203     -18043.733      129.70491    
   4879000   178.46684     -18065.77       85.078172    
   4880000   170.72508     -18086.948      550.26375    
   4881000   172.37416     -18062.679      144.65347    
   4882000   194.20794     -17961.018      499.60981    
   4883000   180.87195     -18055.086     -13.415045    
   4884000   172.38892     -18082.331      167.75652    
   4885000   177.01147     -18036.261      559.11354    
   4886000   187.43664     -18002.716      311.32302    
   4887000   187.82378     -18006.174      418.06676    
   4888000   180.5183      -18054.606      242.06183    
   4889000   169.43701     -18067.336      782.12808    
   4890000   173.09804     -18077.601      575.3834     
   4891000   162.99893     -18102.622      642.66709    
   4892000   177.88838     -18083.992      6.7659032    
   4893000   179.94149     -18030.602      998.4053     
   4894000   182.01041     -18020.137      702.22772    
   4895000   177.52913     -17995.809      943.63733    
   4896000   173.8858      -18047.591      813.1919     
   4897000   179.12843     -18050.031     -33.026218    
   4898000   177.91692     -18030.139      830.11714    
   4899000   191.37023     -18005.493      441.6941     
   4900000   180.02089     -18046.758      537.19059    
   4901000   181.74277     -18051.079      99.636674    
   4902000   175.17787     -18062.299      323.68621    
   4903000   183.11535     -18029.344      826.15477    
   4904000   189.1498      -18016.774      454.75901    
   4905000   183.56138     -18026.16       640.45769    
   4906000   179.20063     -18031.556      856.67272    
   4907000   171.61457     -18081.267      793.0122     
   4908000   174.42741     -18088.259      493.32669    
   4909000   174.56429     -18060.08       740.97868    
   4910000   177.90702     -18030.181      784.91458    
   4911000   173.26645     -18041.643      576.03215    
   4912000   170.26882     -18083.539      581.39325    
   4913000   172.70397     -18099.033      188.94046    
   4914000   179.01149     -18058.848     -68.501817    
   4915000   178.55747     -18041.837      143.51395    
   4916000   177.63588     -18065.029      366.60407    
   4917000   176.30695     -18089.723     -28.727617    
   4918000   180.75398     -18064.238      218.79262    
   4919000   174.17307     -18040.955      1000.6053    
   4920000   175.02021     -18074.801      339.44748    
   4921000   177.42924     -18073.5        27.779682    
   4922000   176.64834     -18042.541      336.21463    
   4923000   179.79578     -18029.766      400.20931    
   4924000   180.90635     -18030.531      260.67825    
   4925000   180.98666     -18054.754      136.43924    
   4926000   169.80078     -18074.823      447.78778    
   4927000   187.03602     -18025.439      111.28093    
   4928000   178.04633     -18016.663      684.02976    
   4929000   178.56581     -18059.434      417.0312     
   4930000   176.74983     -18074.634     -61.70313     
   4931000   177.47414     -18100.711     -171.67905    
   4932000   167.12259     -18092.971      570.2005     
   4933000   180.07225     -18041.679      504.25021    
   4934000   173.77097     -18058.255      559.17515    
   4935000   190.70469     -17982.705      225.8551     
   4936000   184.02173     -18033.923      221.89501    
   4937000   175.9583      -18047.966      395.73652    
   4938000   176.29575     -18072.962      254.39421    
   4939000   168.84007     -18107.69       77.265801    
   4940000   177.39087     -18052.473      373.05589    
   4941000   178.72792     -18037.482      347.77825    
   4942000   188.71213     -18045.118      489.88543    
   4943000   168.18287     -18082.314      306.99455    
   4944000   170.4358      -18069.409      715.64401    
   4945000   174.87625     -18078.823      204.14524    
   4946000   186.14221     -17981.07       542.11086    
   4947000   174.43728     -18071.526      264.45993    
   4948000   175.39807     -18077.757      298.48599    
   4949000   183.346       -17999.753      647.60961    
   4950000   185.79103     -18018.586      364.37124    
   4951000   178.92193     -18045.704      403.78493    
   4952000   186.47611     -18039.63       356.13768    
   4953000   184.88455     -18087.76      -180.41612    
   4954000   186.39707     -18032.768      469.81077    
   4955000   177.19094     -18052.483      626.51247    
   4956000   174.41818     -18069.533      502.08339    
   4957000   177.80584     -18051.537      117.56641    
   4958000   173.41375     -18090.504      414.06325    
   4959000   176.91658     -18100.289     -277.78509    
   4960000   170.43414     -18101.191      119.39392    
   4961000   176.70868     -18055.95       477.22852    
   4962000   176.23432     -18050.772      311.21461    
   4963000   172.12235     -18060.017      713.88902    
   4964000   180.01145     -18104.812     -143.43352    
   4965000   175.44463     -18063.185      81.03969     
   4966000   180.50662     -18035.811      594.32303    
   4967000   177.69293     -18066.52       427.8082     
   4968000   174.20976     -18089.396      18.843691    
   4969000   179.01717     -18051.414      352.27165    
   4970000   180.01048     -18039.162      837.55949    
   4971000   169.84407     -18071.12       633.26633    
   4972000   179.98399     -18077.81       341.58123    
   4973000   175.95373     -18033.515      539.66855    
   4974000   179.19071     -18049.029      316.08341    
   4975000   166.1022      -18116.887      215.17793    
   4976000   185.8425      -18028.545      71.053237    
   4977000   179.24787     -18054.729      293.63815    
   4978000   173.73147     -18107.695      434.48225    
   4979000   183.06832     -18056.824      103.09959    
   4980000   175.92129     -18040.257      340.80401    
   4981000   176.51284     -18051.508      396.9088     
   4982000   181.38582     -18091.994      103.01394    
   4983000   175.63235     -18066.589      253.97153    
   4984000   178.73911     -18047.091      381.60376    
   4985000   182.67572     -18002.597      676.76997    
   4986000   182.71874     -18011.952      409.69634    
   4987000   171.23262     -18066.158      529.80919    
   4988000   175.73018     -18075.821      633.34689    
   4989000   172.68329     -18055.536      246.84645    
   4990000   184.37208     -18039.985      335.11975    
   4991000   186.79536     -18037.214      222.86135    
   4992000   175.00771     -18054.971      451.4512     
   4993000   172.44591     -18079.443      222.65281    
   4994000   172.13144     -18066.158      616.22519    
   4995000   168.39412     -18043.616      877.76209    
   4996000   177.56472     -18033.884      487.83598    
   4997000   176.73768     -18043.927      424.22668    
   4998000   192.96007     -18032.741      600.49815    
   4999000   172.92364     -18085.67       537.2703     
   5000000   171.15661     -18077.163      364.37284    
Loop time of 6934.75 on 32 procs for 5000000 steps with 1196 atoms

Performance: 62.295 ns/day, 0.385 hours/ns, 721.006 timesteps/s, 862.324 katom-step/s
99.9% CPU use with 32 MPI tasks x 1 OpenMP threads

MPI task timing breakdown:
Section |  min time  |  avg time  |  max time  |%varavg| %total
---------------------------------------------------------------
Pair    | 0.41681    | 991.41     | 4732       |4881.7 | 14.30
Bond    | 0.35121    | 12.672     | 35.907     | 343.4 |  0.18
Kspace  | 1018       | 4693.5     | 5698       |2187.7 | 67.68
Neigh   | 242.53     | 245.32     | 252.57     |  17.8 |  3.54
Comm    | 244.52     | 485.57     | 607.22     | 423.8 |  7.00
Output  | 1.5836     | 5.0486     | 8.8474     | 113.0 |  0.07
Modify  | 350.13     | 469.8      | 705.58     | 526.7 |  6.77
Other   |            | 31.47      |            |       |  0.45

Nlocal:         37.375 ave         128 max           0 min
Histogram: 13 11 0 0 0 0 0 0 0 8
Nghost:        1630.59 ave        1778 max        1451 min
Histogram: 8 0 0 0 0 9 7 0 0 8
Neighs:        12661.4 ave       61708 max           0 min
Histogram: 24 0 0 0 1 1 2 1 1 2

Total # of neighbors = 405165
Ave neighs/atom = 338.76672
Ave special neighs/atom = 10.69398
Neighbor list builds = 176955
Dangerous builds = 0
Total wall time: 1:55:35
