LAMMPS (2 Aug 2023 - Update 2)
  using 1 OpenMP thread(s) per MPI task
units           real
atom_style      full
dimension 3
boundary        p p p

read_data       ../model_solvation/sol_N10_1.data
Reading data file ...
  orthogonal box = (0.167499 0.000499 0.000499) to (22.4475 35.0955 35.0955)
  2 by 4 by 4 MPI processor grid
  reading atoms ...
  1196 atoms
  scanning bonds ...
  6 = max bonds/atom
  scanning angles ...
  6 = max angles/atom
  reading bonds ...
  1345 bonds
  reading angles ...
  1110 angles
Finding 1-2 1-3 1-4 neighbors ...
  special bond factors lj:    0        0        0       
  special bond factors coul:  0        0        0       
     6 = max # of 1-2 neighbors
    15 = max # of 1-3 neighbors
    72 = max # of 1-4 neighbors
    30 = max # of special neighbors
  special bonds CPU = 0.002 seconds
  read_data CPU = 0.055 seconds

# Define groups
group mos2  type 6 7 14 15 16 17     # MoS2 backbone
420 atoms in group mos2
group water type 4 5 9     # 4 and 5 are H1 and H2 atoms, 9 is O atom
720 atoms in group water
group hcro  type 2 3 10 11 12 13     # HCRO4- ions
30 atoms in group hcro
group slvn  type 1 2 3 8 10 11 12  13 # solvent
56 atoms in group slvn
group sol   type 1 2 3 4 5 8 9 10 11 12  13 # solvent and solution
776 atoms in group sol
group dmp   type 1 2 3 6 7 8 10 11 12 13 14 15 16 17 # all without water
476 atoms in group dmp

# Pair style and kspace
pair_style      lj/cut/coul/long 10.0
special_bonds lj 0.0 0.0 0.5 coul 0.0 0.0 0.83333333
Finding 1-2 1-3 1-4 neighbors ...
  special bond factors lj:    0        0        0.5     
  special bond factors coul:  0        0        0.83333333
     6 = max # of 1-2 neighbors
    15 = max # of 1-3 neighbors
    72 = max # of 1-4 neighbors
    30 = max # of special neighbors
  special bonds CPU = 0.001 seconds
pair_modify     mix arithmetic
kspace_style    pppm 1.0e-4
#kspace_style ewald 1e-8

# Pair Coeff
pair_coeff 1 1     0.070   3.5600000   # Cl-Cl
pair_coeff 2 2     0.050   2.5000000   # CR-CR
pair_coeff 3 3     0.001   1.0000000   # H-H
pair_coeff 4 4     0.0     0.0         # H1-H1
pair_coeff 5 5     0.0     0.0         # H2-H2
pair_coeff 6 6     0.0134  4.2000000   # Mo1-Mo1
pair_coeff 7 7     0.0134  4.2000000   # Mo2-Mo2
pair_coeff 8 8     0.0469  2.4300000   # Na-Na
pair_coeff 9 9     0.1521  3.1507      # OW-OW
pair_coeff 10 10   0.1000  3.0000000   # O1-O1
pair_coeff 11 11   0.1000  3.0000000   # O2-O2
pair_coeff 12 12   0.1000  3.0000000   # O3-O3
pair_coeff 13 13   0.1000  3.0000000   # O4-O4
pair_coeff 14 14   0.4610  3.1300000   # S1-S1
pair_coeff 15 15   0.4610  3.1300000   # S2-S2
pair_coeff 16 16   0.4610  3.1300000   # S3-S3
pair_coeff 17 17   0.4610  3.1300000   # S4-S4

bond_style harmonic
bond_coeff 1 650 2.4127                # Mo-S bond
bond_coeff 2 650 1.600                 # CR-O bond in HCRO4
bond_coeff 3 450 0.600                 # O-H bond  in HCRO4
bond_coeff 4 450 0.957                 # O-H bond  in water

angle_style     harmonic
angle_coeff 1 100 82.38                # Mo-S-Mo angle in MoS2
angle_coeff 2 55 104.52                # O-CR-O angle in HCRO4
angle_coeff 3 80 109.50                # H-O-H angle in water

## Minimize the system first
velocity all create 300.0 12345 dist gaussian mom yes rot yes
min_style cg
minimize 1.0e-4 1.0e-6 1000 10000
PPPM initialization ...
WARNING: System is not charge neutral, net charge = 0.00012 (src/src/kspace.cpp:327)
  using 12-bit tables for long-range coulomb (src/src/kspace.cpp:342)
  G vector (1/distance) = 0.2571481
  grid = 12 16 16
  stencil order = 5
  estimated absolute RMS force accuracy = 0.028448941
  estimated relative force accuracy = 8.5673142e-05
  using double precision FFTW3
  3d grid and FFT values/proc = 1053 96
Generated 136 of 136 mixed pair_coeff terms from arithmetic mixing rule
Neighbor list info ...
  update: every = 1 steps, delay = 0 steps, check = yes
  max neighbors/atom: 2000, page size: 100000
  master list distance cutoff = 12
  ghost atom cutoff = 12
  binsize = 6, bins = 4 6 6
  1 neighbor lists, perpetual/occasional/extra = 1 0 0
  (1) pair lj/cut/coul/long, perpetual
      attributes: half, newton on
      pair build: half/bin/newton
      stencil: half/bin/3d
      bin: standard
WARNING: Inconsistent image flags (src/src/domain.cpp:815)
Per MPI rank memory allocation (min/avg/max) = 11.62 | 11.72 | 11.96 Mbytes
   Step          Temp          E_pair         E_mol          TotEng         Press     
         0   300            1.3126792e+13  648.90202      1.3126792e+13  1.3120097e+14
       304   300           -23289.349      4230.7032     -17990.025     -333.08885    
Loop time of 3.47595 on 32 procs for 304 steps with 1196 atoms

97.7% CPU use with 32 MPI tasks x 1 OpenMP threads

Minimization stats:
  Stopping criterion = energy tolerance
  Energy initial, next-to-last, final = 
      13126792483695.5  -19056.7766599578  -19058.6458316508
  Force two-norm initial, final = 6.8889864e+14 67.275142
  Force max component initial, final = 3.0247017e+14 22.303684
  Final line search alpha, max atom move = 0.0020699956 0.046168528
  Iterations, force evaluations = 304 541

MPI task timing breakdown:
Section |  min time  |  avg time  |  max time  |%varavg| %total
---------------------------------------------------------------
Pair    | 5.8013e-05 | 0.23216    | 1.9295     |  86.8 |  6.68
Bond    | 6.654e-05  | 0.0022219  | 0.0070854  |   5.3 |  0.06
Kspace  | 1.1676     | 2.8718     | 3.1122     |  24.8 | 82.62
Neigh   | 0.29988    | 0.30016    | 0.30078    |   0.0 |  8.64
Comm    | 0.029073   | 0.049094   | 0.059722   |   3.4 |  1.41
Output  | 0          | 0          | 0          |   0.0 |  0.00
Modify  | 0          | 0          | 0          |   0.0 |  0.00
Other   |            | 0.02054    |            |       |  0.59

Nlocal:         37.375 ave         128 max           0 min
Histogram: 14 10 0 0 0 0 0 0 0 8
Nghost:        1625.59 ave        1777 max        1440 min
Histogram: 8 0 0 0 0 9 7 0 0 8
Neighs:          12734 ave       61572 max           0 min
Histogram: 24 0 0 0 1 1 2 0 2 2

Total # of neighbors = 407487
Ave neighs/atom = 340.70819
Ave special neighs/atom = 10.69398
Neighbor list builds = 16
Dangerous builds = 0

# *************** Setting ******************************
# Neighbor settings
neigh_modify delay 0 every 1 check yes
#neigh_modify    delay 5 every 1

# Define SHAKE constraints for water (O-H bonds and H-O-H angle)
fix spce_model water shake 0.0001 20 0 b 4 a 2
Finding SHAKE clusters ...
       0 = # of size 2 clusters
     240 = # of size 3 clusters
       0 = # of size 4 clusters
       0 = # of frozen angles
  find clusters CPU = 0.001 seconds

# Fix MoS2 as rigid (zero force and velocity)
fix mos_hold mos2 setforce 0.0 0.0 0.0
velocity mos2 set 0.0 0.0 0.0

### Setup for HCrO- transport in radial and axial directions
# Define acceleration/gravity field along x direction (unit kcal/g/A = 4.18*10^7 nm/ns^2)
fix 1 hcro gravity 0.3 vector 1 0 0
# Define force along radial direction (0.001 kcal/mol·e·Å)
# Tube center coordinates: Y=17.5, Z=17.5 (from box bounds)
variable ycenter equal 17.548
variable zcenter equal 17.548
variable r atom sqrt((y-${ycenter})^2+(z-${zcenter})^2)
variable r atom sqrt((y-17.548)^2+(z-${zcenter})^2)
variable r atom sqrt((y-17.548)^2+(z-17.548)^2)
variable fy atom 1.7*(y-${ycenter})/v_r  # positive = outward from tube center
variable fy atom 1.7*(y-17.548)/v_r  
variable fz atom 1.7*(z-${zcenter})/v_r  # positive = outward from tube center
variable fz atom 1.7*(z-17.548)/v_r  
fix radial_out hcro addforce 0 v_fy v_fz

# Set timestep
reset_timestep  0
timestep        1  # fs
fix fix_nvt sol nvt temp 300.0 300.0 200.0

# Thermostat output
thermo          1000
thermo_style    custom step temp etotal press
# dump every 1000fs = 1ps
dump d1 dmp custom 1000 dump.lammpstrj id type mol xu yu zu q

# Run for 5 ns (5,000,000 steps)
run 5000000
PPPM initialization ...
  using 12-bit tables for long-range coulomb (src/src/kspace.cpp:342)
  G vector (1/distance) = 0.2571481
  grid = 12 16 16
  stencil order = 5
  estimated absolute RMS force accuracy = 0.028448941
  estimated relative force accuracy = 8.5673142e-05
  using double precision FFTW3
  3d grid and FFT values/proc = 1053 96
Generated 136 of 136 mixed pair_coeff terms from arithmetic mixing rule
WARNING: Inconsistent image flags (src/src/domain.cpp:815)
Per MPI rank memory allocation (min/avg/max) = 11.87 | 11.94 | 12.1 Mbytes
   Step          Temp          TotEng         Press     
         0   227.54083     -18583.77      -3480.1727    
      1000   192.71206     -17824.703      1450.8629    
      2000   171.3414      -17921.337      1466.7128    
      3000   179.17232     -17942.713      1047.5841    
      4000   176.95318     -17966.723      1159.396     
      5000   178.93337     -17948.558      1559.462     
      6000   180.33196     -17934.494      1624.8259    
      7000   178.73192     -17915.726      1320.6531    
      8000   182.91468     -17931.505      1556.7506    
      9000   180.23008     -17968.222      1650.0785    
     10000   180.1449      -18008.341      804.08612    
     11000   174.25718     -17953.495      1126.9397    
     12000   174.69347     -17960.827      1237.5144    
     13000   173.99934     -18058.504      770.09601    
     14000   186.03533     -17951.5        1143.1087    
     15000   178.63538     -17984.316      1086.5677    
     16000   175.1699      -18046.696      889.26442    
     17000   168.22109     -18019.052      769.83545    
     18000   178.71315     -17996.573      931.30135    
     19000   173.40703     -17986.527      726.00272    
     20000   181.4909      -17961.785      1620.224     
     21000   187.22014     -17953.336      1193.2507    
     22000   178.62794     -17993.189      1308.8963    
     23000   172.43135     -17989.987      1343.3795    
     24000   180.33978     -17982.851      1131.6799    
     25000   188.20438     -17924.93       1400.0596    
     26000   178.97445     -17993.722      1180.0669    
     27000   172.40262     -18041.003      901.46389    
     28000   174.64454     -18022.262      1570.9537    
     29000   172.42995     -18029.8        1088.1107    
     30000   182.63631     -17988.034      1298.5458    
     31000   186.80103     -17970.294      1018.2098    
     32000   180.11825     -18001.834      1521.6377    
     33000   174.48054     -18018.61       798.71568    
     34000   175.31535     -18008.011      1208.1988    
     35000   175.55927     -17983.057      917.89075    
     36000   189.03464     -17975.142      1052.4166    
     37000   185.92666     -18001.791      925.58971    
     38000   179.09794     -18021.828      938.0562     
     39000   181.19178     -17938.504      1482.8881    
     40000   188.35112     -17968.719      961.4001     
     41000   182.65118     -18002.03       814.56311    
     42000   175.57464     -18019.215      1250.715     
     43000   180.89487     -18043.991      1106.1842    
     44000   169.36061     -18041.847      1348.9155    
     45000   181.09111     -17981.506      1747.6775    
     46000   179.53794     -17971.13       1554.2034    
     47000   172.17193     -18052.356      1123.1006    
     48000   174.77573     -18012.351      988.2812     
     49000   179.24285     -17999.836      1313.2164    
     50000   173.10577     -17999.143      1157.1774    
     51000   173.10986     -18032.929      1173.8048    
     52000   174.62924     -18036.918      1236.4871    
     53000   179.20082     -18011.027      573.426      
     54000   179.12581     -17962.153      1618.8436    
     55000   187.38734     -17942.14       1025.5365    
     56000   173.70929     -17992.173      762.29658    
     57000   176.74379     -18018.986      872.9753     
     58000   167.64755     -18044.935      799.23689    
     59000   171.56283     -18039.313      1235.5901    
     60000   175.26906     -17971.161      1602.1822    
     61000   173.29652     -18026.179      502.38972    
     62000   182.20144     -18003.346      957.10987    
     63000   182.25671     -17974.508      1154.8766    
     64000   182.37817     -17979.207      797.60947    
     65000   169.11944     -17993.225      871.71199    
     66000   189.78257     -17980.046      1079.6866    
     67000   180.22902     -17962.508      1640.1292    
     68000   181.2101      -17949.756      796.88206    
     69000   176.10486     -18010.351      1374.3312    
     70000   182.37918     -17971.201      1450.8665    
     71000   185.83147     -17974.292      739.89975    
     72000   171.01832     -18016.191      1097.876     
     73000   181.99982     -18015.492      586.50162    
     74000   179.68716     -18003.809      1164.8947    
     75000   190.65638     -17950.107      902.368      
     76000   173.53325     -18061.654      1019.427     
     77000   177.68324     -18025.078      693.19982    
     78000   183.00371     -17990.479      1205.8718    
     79000   179.79814     -18023.829      937.66132    
     80000   174.17907     -18035.374      997.10943    
     81000   187.54221     -18014.084      1217.7468    
     82000   186.199       -17970.131      1354.4576    
     83000   182.07447     -18012.753      1339.0362    
     84000   172.74681     -18044.535      1172.284     
     85000   179.64145     -18058.164      547.82264    
     86000   180.37265     -18024.719      1086.1191    
     87000   180.8917      -18068.821      1043.5342    
     88000   170.6343      -18078.417      1033.2729    
     89000   178.21761     -18080.152      516.27184    
     90000   182.62476     -18026.88       1007.8533    
     91000   172.2872      -18060.638      670.68094    
     92000   179.13889     -18038.651      818.04109    
     93000   188.76189     -17994.939      1091.6831    
     94000   175.3348      -18020.101      1118.6363    
     95000   177.56256     -18033.951      636.16517    
     96000   178.44139     -18054.913      563.31157    
     97000   169.7306      -18091.887      595.16801    
     98000   178.79903     -18032.975      650.37744    
     99000   175.71211     -18027.562      1043.296     
    100000   183.94546     -18055.461      613.65729    
    101000   171.57493     -18107.828      26.496923    
    102000   180.09901     -18065.864      492.75687    
    103000   180.7779      -18040.856      619.64779    
    104000   176.07847     -18031.608      586.61923    
    105000   183.46207     -17983.901      702.28736    
    106000   193.27831     -17977.205      1004.8931    
    107000   170.965       -18059.567      545.06235    
    108000   182.36745     -18020.749      696.32635    
    109000   176.74967     -18048.759      763.98596    
    110000   172.1566      -18076.187      848.23882    
    111000   170.65734     -18076.621      724.30034    
    112000   181.10178     -18043.624      641.47164    
    113000   179.1376      -18041.974      438.65252    
    114000   172.1684      -18066.412      561.8851     
    115000   177.61824     -18047.346      932.02457    
    116000   168.50067     -18050.177      760.03894    
    117000   179.13369     -18079.279      514.84487    
    118000   188.6146      -18066.677      436.44628    
    119000   185.50392     -18015.654      717.96048    
    120000   185.30439     -18010.562      406.87139    
    121000   181.11388     -18023.602      461.46034    
    122000   187.32233     -18041.551      419.8194     
    123000   165.01029     -18110.031      627.5077     
    124000   168.36991     -18102.473      273.37519    
    125000   184.27889     -18042.793      162.74877    
    126000   184.53815     -18050.741      540.49309    
    127000   172.88381     -18073.002      30.34028     
    128000   175.19286     -18111.613      166.42553    
    129000   181.04075     -18048.737      558.72518    
    130000   171.28938     -18085.225      432.75324    
    131000   185.7359      -18082.34       366.42379    
    132000   173.80197     -18050.475      287.04806    
    133000   174.97819     -18056.904      1036.7736    
    134000   177.96473     -18065.075      224.64203    
    135000   174.61818     -18115.471      282.58675    
    136000   174.75245     -18086.403      456.2751     
    137000   180.41984     -18078.576      508.96799    
    138000   183.59031     -18039.715      483.18754    
    139000   178.69423     -18058.009      737.6536     
    140000   180.24501     -18062.56       408.91233    
    141000   182.67899     -18013.37       726.65059    
    142000   183.16334     -18013.531      673.15564    
    143000   185.22677     -18040.544      390.03063    
    144000   179.1343      -18054.417      189.61145    
    145000   177.20533     -18047.575      901.37738    
    146000   186.72516     -18022.67       451.92079    
    147000   187.01483     -18017.973      983.54442    
    148000   165.64923     -18096.3        318.15866    
    149000   170.20945     -18075.92       387.71058    
    150000   180.99698     -18044.041      539.33553    
    151000   181.91849     -18038.978      67.838396    
    152000   162.26083     -18142.971      151.18721    
    153000   181.86887     -18039.777      291.21992    
    154000   181.82542     -18063.501      233.24933    
    155000   175.57046     -18047.539      594.88554    
    156000   176.24741     -18042.281      526.20937    
    157000   183.37866     -18011.696      384.51066    
    158000   175.76828     -18054.838      681.98609    
    159000   169.9544      -18065.432      219.11856    
    160000   185.10918     -18068.008      339.88696    
    161000   186.8595      -18021.493      829.70001    
    162000   184.373       -17994.423      780.56258    
    163000   178.86236     -18072.012      81.19472     
    164000   165.07092     -18099.794     -70.557629    
    165000   176.81058     -18052.965      743.17769    
    166000   180.59707     -18042.874      1312.8157    
    167000   190.07933     -18036.462      205.53426    
    168000   179.68213     -18071.332      684.75992    
    169000   172.87359     -18091.07       564.53063    
    170000   177.2011      -18052.255      1029.2706    
    171000   180.58241     -18033.378      1134.3593    
    172000   172.83188     -18077.368      557.84615    
    173000   173.85106     -18093.75       463.60942    
    174000   165.26689     -18063.872      568.29165    
    175000   191.50674     -18032.423      589.37343    
    176000   189.05716     -18043.622      512.91774    
    177000   174.3335      -18047.52       713.1858     
    178000   176.45851     -18102.119      120.64337    
    179000   176.88113     -18055.692      611.89682    
    180000   176.34055     -18100.075      135.28168    
    181000   185.86691     -18052.306      690.11992    
    182000   183.65602     -18040.993      518.1895     
    183000   174.78566     -18071.413      835.70422    
    184000   179.21984     -18013.894      982.00423    
    185000   190.26753     -17998.649      806.20102    
    186000   181.4942      -18089.914      20.368844    
    187000   178.62225     -18080.145      500.04686    
    188000   184.46838     -18057.858      453.37597    
    189000   178.53555     -18058.243      341.5187     
    190000   173.62285     -18114.531      209.6934     
    191000   182.92361     -18066.92      -104.95008    
    192000   175.40699     -18050.348      654.13169    
    193000   177.33806     -18062.723      454.27449    
    194000   166.26848     -18089.217      488.89736    
    195000   172.79609     -18094.222     -172.46579    
    196000   179.58303     -18070.485      417.90029    
    197000   185.33838     -18033.557      213.12388    
    198000   178.85567     -18076.706      326.88067    
    199000   177.97081     -18061.939      270.87921    
    200000   178.12071     -18084.555     -73.929359    
    201000   186.76151     -17995.207      849.80364    
    202000   178.15829     -18025.879      524.97988    
    203000   179.56659     -18050.966      796.62096    
    204000   185.35915     -18035.708      632.69975    
    205000   177.30312     -18056.085      626.29261    
    206000   173.74512     -18098.969      553.56541    
    207000   180.0166      -18065.244      357.06709    
    208000   181.96146     -18050.701      388.78737    
    209000   178.32958     -18060.846      844.67268    
    210000   179.84381     -18047.075      204.38994    
    211000   174.89567     -18069.705      644.66172    
    212000   178.48061     -18058.174      455.14429    
    213000   176.84222     -18079.336     -66.230251    
    214000   179.40708     -18032.288      97.793911    
    215000   174.22738     -18051.72       575.12464    
    216000   177.43611     -18085.436     -2.8415334    
    217000   183.01925     -18085.245      171.66969    
    218000   172.11752     -18071.036      361.20778    
    219000   183.47178     -18038.572      625.65839    
    220000   178.76409     -18023.809      564.65922    
    221000   189.54335     -18025.644      551.79833    
    222000   177.65594     -18061.181      507.12313    
    223000   179.22421     -18049.671      416.78129    
    224000   181.79341     -18031.196      585.93731    
    225000   189.24067     -17990.604      439.30572    
    226000   167.21809     -18070.884      802.53727    
    227000   175.1859      -18066.708      583.12284    
    228000   184.91189     -18033.242      368.27769    
    229000   169.42754     -18061.813      606.02549    
    230000   181.05006     -18079.985      595.40709    
    231000   174.27948     -18072.314      446.95332    
    232000   184.61191     -18032.803      670.4357     
    233000   182.0283      -18055.154      459.87327    
    234000   180.33398     -18071.874      710.62539    
    235000   170.7052      -18093.146      667.76516    
    236000   170.54269     -18062.298      954.92832    
    237000   176.70373     -18045.627      403.57072    
    238000   176.88712     -18068.556      328.94517    
    239000   175.299       -18061.287      339.52124    
    240000   180.01993     -18050.911      603.36445    
    241000   179.55502     -18015.776      1252.5623    
    242000   177.11143     -18054.583      640.64103    
    243000   176.52722     -18075.478      404.14377    
    244000   188.3122      -18044.081     -64.922355    
    245000   179.95484     -18021.334      690.60108    
    246000   179.84986     -18028.664     -154.48587    
    247000   175.80905     -18102.591     -336.43756    
    248000   177.71852     -18072.71      -76.170101    
    249000   175.67136     -18051.907      396.95631    
    250000   183.79205     -18049.935      147.64915    
    251000   166.4401      -18092.969     -156.75453    
    252000   174.04281     -18064.698      470.60027    
    253000   179.79168     -18061.798      263.56307    
    254000   178.45864     -18036.043      292.30167    
    255000   180.38721     -18036.56       659.09148    
    256000   174.13356     -18066.367      348.07397    
    257000   170.03845     -18077.701     -224.68641    
    258000   174.62923     -18037.649      319.71975    
    259000   185.23223     -18010.316      448.45321    
    260000   170.97049     -18078.682      435.77534    
    261000   182.69487     -18059.147      568.63742    
    262000   178.9649      -18034.228      100.3459     
    263000   173.82332     -18056.679      279.46209    
    264000   174.29312     -18088.396      703.88111    
    265000   173.77848     -18079.01       483.44514    
    266000   186.071       -17987.925      741.32046    
    267000   170.96667     -18049.345      531.87813    
    268000   177.70436     -18073.247      466.08053    
    269000   174.09776     -18071.56       501.29032    
    270000   175.16586     -18061.506      419.53345    
    271000   187.53611     -18044.979      17.154927    
    272000   178.36051     -18053.126      774.58987    
    273000   169.0061      -18081.566      906.68203    
    274000   171.89062     -18086.962      434.87265    
    275000   180.25066     -18048.819      396.35383    
    276000   175.83551     -18040.036      879.07431    
    277000   190.74598     -18009.588      731.90789    
    278000   176.68849     -18036.035      603.37124    
    279000   172.39832     -18061.592      941.39548    
    280000   171.34775     -18055.844      420.62265    
    281000   177.20993     -18042.23       670.70616    
    282000   183.7391      -18031.672      552.48297    
    283000   177.52584     -18038.507      234.60448    
    284000   173.22556     -18097.289      408.56029    
    285000   180.98219     -18081.799      685.97995    
    286000   182.05344     -18034.986      743.1597     
    287000   185.93941     -18024.35       570.76585    
    288000   182.05563     -18055.967      738.31881    
    289000   179.85811     -18055.777      912.95361    
    290000   185.99572     -18019.13       558.11361    
    291000   185.18547     -17986.475      933.04452    
    292000   176.93838     -18006.117      1361.2816    
    293000   169.27388     -18050.164      489.69305    
    294000   173.90511     -18064.305      731.31791    
    295000   176.74963     -18055.142      606.08134    
    296000   179.81649     -18022.105      900.12052    
    297000   174.50593     -18053.311      573.3829     
    298000   169.74116     -18090.9        548.72965    
    299000   174.16893     -18077.79       347.85704    
    300000   178.90953     -18055.892      173.6443     
    301000   186.68454     -18000.516      844.25818    
    302000   173.21636     -18056.045      461.73245    
    303000   174.17088     -18070.542      604.95095    
    304000   181.90699     -18083.609      47.183036    
    305000   179.60809     -18034.045      791.16632    
    306000   182.93414     -18025.686      1162.1816    
    307000   179.51054     -18051.291      441.75632    
    308000   181.32071     -18103.462      284.26864    
    309000   172.31461     -18046.445      606.51744    
    310000   177.15757     -18027.688      823.93847    
    311000   179.55197     -18009.642      397.66617    
    312000   176.02342     -18023.415      803.03924    
    313000   174.52791     -18035.737      627.84728    
    314000   172.52483     -18062.165      727.91256    
    315000   178.82059     -18037.603      743.75588    
    316000   173.96567     -18044.406      666.63837    
    317000   182.15903     -18037.981      625.66923    
    318000   184.81098     -18010.91       620.48244    
    319000   184.82531     -18038.77       848.92404    
    320000   169.40931     -18060.13       491.36535    
    321000   174.90482     -18050.826      602.9083     
    322000   182.29402     -18046.75       210.87485    
    323000   178.15159     -18068.556      339.32676    
    324000   179.61973     -18041.298      870.90735    
    325000   193.54209     -18025.051      230.59025    
    326000   187.71358     -18014.992      637.25756    
    327000   176.63454     -18082.201      555.56038    
    328000   178.19242     -18086.114      462.06889    
    329000   179.79339     -18033.523      805.10253    
    330000   171.59647     -18042.334      1084.6124    
    331000   179.54673     -18030.535      931.33642    
    332000   183.90256     -18066.397      308.79296    
    333000   177.10688     -18087.207      667.38479    
    334000   179.15107     -18065.238      911.11425    
    335000   178.14593     -18048.403      812.67782    
    336000   173.46449     -18079.668      832.98227    
    337000   173.73426     -18059.017      786.86625    
    338000   175.53096     -18015.787      1278.4346    
    339000   180.72834     -18023.666      1214.8162    
    340000   177.55723     -18052.541      353.48795    
    341000   184.58368     -18046.098      344.8053     
    342000   177.7549      -18002.791      1010.2278    
    343000   180.6085      -18044.877      756.10814    
    344000   177.73094     -18062.183      831.10136    
    345000   174.77201     -18094.026      872.2039     
    346000   181.44439     -18049.267      678.2731     
    347000   185.90348     -18019.932      848.83633    
    348000   170.89798     -18091.765      940.51181    
    349000   172.83103     -18077.909      673.87957    
    350000   180.09054     -18051.186      1045.5799    
    351000   172.32619     -18050.678      1153.931     
    352000   167.46996     -18076.354      788.55576    
    353000   173.55163     -18075.744      1142.961     
    354000   172.99572     -18082.365      701.05466    
    355000   179.76583     -18039.734      415.24705    
    356000   184.23006     -18045.051      211.73089    
    357000   179.96473     -18021.369      903.9183     
    358000   181.09395     -18047.791      832.56       
    359000   181.41603     -18080.188      488.94327    
    360000   174.10425     -18067.717      916.78244    
    361000   176.70016     -18032.024      695.67986    
    362000   185.56379     -18017.84       1234.873     
    363000   175.45488     -18055.818      697.52325    
    364000   181.3796      -18028.087      764.83285    
    365000   181.23098     -18045.008      640.39784    
    366000   177.09101     -18073.104      799.37533    
    367000   163.94974     -18076.479      1095.3345    
    368000   180.54794     -18033.313      895.66872    
    369000   184.10648     -18041.567      663.81395    
    370000   179.60395     -18048.133      867.78516    
    371000   179.48737     -18058.39       588.2199     
    372000   184.09175     -18009.206      1192.5048    
    373000   176.85996     -18018.845      980.26508    
    374000   168.4307      -18071.921      570.22165    
    375000   171.26799     -18060.536      1026.9474    
    376000   185.33815     -18016.312      648.01719    
    377000   179.78809     -18045.326      479.56115    
    378000   178.10687     -18085.871      905.94338    
    379000   174.78168     -18079.163      551.12956    
    380000   179.53133     -18057.083      522.09136    
    381000   170.52426     -18041.881      1183.0616    
    382000   172.47507     -18046.079      699.14479    
    383000   176.65065     -18091.276      638.30412    
    384000   177.26479     -18055.668      1029.3996    
    385000   174.5736      -18056.239      954.88375    
    386000   181.87965     -18044.497      716.51919    
    387000   176.79339     -18088.695      673.68658    
    388000   171.00979     -18085.8        832.43728    
    389000   165.45469     -18090.787      769.03875    
    390000   174.14316     -18070.683      986.77722    
    391000   185.31912     -18023.375      909.9558     
    392000   187.27247     -18030.155      391.23077    
    393000   171.73836     -18052.683      1143.7224    
    394000   174.12879     -18080.873      513.71019    
    395000   181.04373     -18072.483      468.6378     
    396000   177.77087     -18046.088      954.16601    
    397000   176.43407     -18037.216      594.49198    
    398000   177.6215      -18061.65       888.87795    
    399000   172.57286     -18095.463      959.97057    
    400000   175.05071     -18071.097      213.19409    
    401000   188.46899     -18041.651      876.93001    
    402000   179.16255     -18066.525      275.27102    
    403000   168.24551     -18106.44       275.89529    
    404000   170.18559     -18105.964      551.80914    
    405000   171.11769     -18090.461      633.41367    
    406000   174.53695     -18059.926      706.28059    
    407000   186.20695     -18019.8        651.59238    
    408000   182.84712     -18040.73       628.66933    
    409000   175.98707     -18062.072      479.6102     
    410000   172.16935     -18084.279      965.63108    
    411000   175.86345     -18067.585      572.44013    
    412000   184.46128     -18013.682      407.06079    
    413000   174.72947     -18070.728      197.00379    
    414000   183.91462     -18076.144      765.3113     
    415000   168.26988     -18068.582      1011.6866    
    416000   180.92667     -18042.326      574.58811    
    417000   174.66115     -18111.621      445.15564    
    418000   171.16686     -18087.168      730.76129    
    419000   177.42825     -18040.814      838.18817    
    420000   168.21707     -18077.15       892.35026    
    421000   177.60143     -18036.858      1118.4915    
    422000   185.17222     -18039.727      530.90899    
    423000   179.49199     -18063.461      957.7086     
    424000   181.72018     -18068.808      631.57913    
    425000   177.2835      -18055.868      983.34248    
    426000   178.23781     -18048.947      851.23642    
    427000   189.06601     -18013.887      742.23244    
    428000   185.45846     -18024.251      1301.4232    
    429000   177.50785     -18031.761      490.64947    
    430000   172.72574     -18054.077      446.45718    
    431000   172.60042     -18114.462      611.80391    
    432000   178.93546     -18095.499      303.44141    
    433000   185.02299     -18049.325      739.86144    
    434000   175.57622     -18046.836      954.7336     
    435000   173.16023     -18068.663      684.88051    
    436000   171.42989     -18092.367      501.0691     
    437000   177.67136     -18068.374      651.76407    
    438000   179.56352     -18047.786      639.0656     
    439000   181.74505     -18028.309      664.31496    
    440000   189.87337     -18008.873      792.49439    
    441000   180.3133      -18047.274      685.21331    
    442000   174.71121     -18058.142      1102.7385    
    443000   173.87068     -18065.81       763.65482    
    444000   173.17198     -18085.945      586.93689    
    445000   179.99518     -18079.047      727.55854    
    446000   179.91152     -18033.941      286.95821    
    447000   179.48644     -18038.933      669.67101    
    448000   175.95958     -18066.516      661.24249    
    449000   173.72712     -18091.335      687.50906    
    450000   181.18277     -18057.952      672.01507    
    451000   174.06202     -18040.588      942.14687    
    452000   170.44947     -18065.489      773.89607    
    453000   176.8615      -18051.851      610.44837    
    454000   182.03655     -18045.571      970.84054    
    455000   178.78649     -18026.773      403.26046    
    456000   175.46653     -18033.892      642.06781    
    457000   178.38202     -18004.445      1167.848     
    458000   182.32837     -18031.011      548.06319    
    459000   180.71269     -18051.906      691.94605    
    460000   169.63252     -18084.207      310.18574    
    461000   181.44005     -18042.468      741.53009    
    462000   172.85814     -18040.139      1183.3912    
    463000   172.13985     -18021.076      904.80814    
    464000   189.65665     -17975.59       1139.8964    
    465000   171.48234     -18056.264      1131.6186    
    466000   174.8941      -18024.893      1219.1211    
    467000   178.76938     -18048.432      567.63143    
    468000   174.83938     -18053.483      844.35347    
    469000   186.20035     -17999.083      652.23782    
    470000   182.92632     -18006.764      538.94405    
    471000   174.70872     -18055.478      549.53574    
    472000   182.58484     -18028.229      1111.4709    
    473000   182.55437     -18006.666      769.98394    
    474000   172.19913     -18064.225      960.66814    
    475000   173.79698     -18064.95       565.41849    
    476000   175.83824     -18053.729      121.99115    
    477000   181.47361     -18015.516      875.79379    
    478000   188.17711     -18001.712      774.06177    
    479000   183.51779     -18004.842      976.06279    
    480000   171.43888     -18077.295      540.63938    
    481000   175.35642     -18036.103      1164.9242    
    482000   180.26922     -18022.518      904.92434    
    483000   179.80162     -18034.144      615.47441    
    484000   181.96926     -18044.289      804.11849    
    485000   181.72954     -18045.25       763.53389    
    486000   182.71356     -18017.129      922.55806    
    487000   184.12247     -17992.551      716.03872    
    488000   185.19006     -18013.565      1154.1292    
    489000   185.69412     -18026.637      809.62904    
    490000   170.0051      -18069.181      811.16183    
    491000   178.29043     -18043.901      1209.9845    
    492000   176.8824      -18037.551      1168.772     
    493000   187.67685     -17983.969      931.18954    
    494000   184.34226     -18003.802      1113.0066    
    495000   171.66012     -18051.363      602.94266    
    496000   170.76326     -18064.301      788.01184    
    497000   165.09148     -18083.255      996.567      
    498000   177.1212      -18044.103      832.61313    
    499000   182.84166     -18033.352      802.17893    
    500000   178.76566     -18021.996      1224.4512    
    501000   172.4527      -18069.969      802.16976    
    502000   168.91083     -18071.106      940.39191    
    503000   171.59749     -18047.067      983.75468    
    504000   180.66943     -18018.567      830.80821    
    505000   182.90771     -17991.273      1019.4953    
    506000   172.86728     -18036.63       1020.8485    
    507000   173.73637     -18062.807      816.27884    
    508000   180.92905     -18038.018      814.49083    
    509000   177.56589     -18028          894.50309    
    510000   179.81059     -18009.996      1004.9153    
    511000   181.77343     -17982.459      1188.6271    
    512000   176.24847     -18013.551      1276.7548    
    513000   174.69789     -18038.891      708.78339    
    514000   186.1342      -18018.881      1159.1197    
    515000   190.48512     -17996.115      722.25569    
    516000   178.12028     -18020.316      745.62044    
    517000   176.02107     -18025.91       984.82398    
    518000   173.6864      -18031.619      992.0289     
    519000   179.21106     -18015.681      479.25358    
    520000   199.45811     -17953.238      854.15153    
    521000   175.01836     -18044.233      340.54067    
    522000   167.4586      -18056.949      819.5246     
    523000   177.16822     -18082.353      337.98112    
    524000   176.37733     -18047.678      975.86388    
    525000   179.57001     -18016.309      1078.5613    
    526000   176.76318     -18014.63       909.74663    
    527000   177.97939     -18064.639      596.32988    
    528000   174.64727     -18058.503      654.08435    
    529000   176.40827     -18032.739      739.4945     
    530000   172.73622     -18044.043      981.28784    
    531000   178.01715     -18065.766      741.31599    
    532000   171.98528     -18068.277      497.93593    
    533000   175.8649      -18036.017      862.45133    
    534000   176.40493     -18045.242      402.1192     
    535000   175.87257     -18078.958      727.22585    
    536000   184.82045     -18052.61       452.34583    
    537000   193.584       -18017.267      506.68483    
    538000   176.4613      -18009.414      632.80393    
    539000   172.74771     -18057.872      684.43711    
    540000   178.99314     -18022.076      1031.476     
    541000   181.33478     -17998.332      1275.6679    
    542000   184.11621     -18027.334      909.28127    
    543000   175.20083     -18061.543      692.54676    
    544000   177.93306     -18043.622      337.38991    
    545000   182.6499      -18017.565      976.45503    
    546000   186.62989     -18049.859      1019.391     
    547000   171.67468     -18068.816      804.53207    
    548000   169.07858     -18080.625      884.20544    
    549000   175.78688     -18044.156      659.36578    
    550000   174.51597     -18021.965      874.35205    
    551000   177.43626     -18049.207      880.93625    
    552000   170.90539     -18047.599      503.82014    
    553000   169.24648     -18072.544      666.26298    
    554000   175.40109     -18054.988      807.2199     
    555000   179.47571     -18020.597      1205.865     
    556000   181.48705     -18043.682      978.27311    
    557000   168.24431     -18060.414      584.13264    
    558000   176.27277     -18027.841      875.72798    
    559000   189.37591     -17984.482      1160.6008    
    560000   178.36691     -18025.938      1076.6412    
    561000   167.32991     -18052.167      872.21515    
    562000   171.9901      -18049.49       888.44655    
    563000   187.13723     -18014.674      781.4836     
    564000   175.24647     -18006.869      1303.8838    
    565000   180.9634      -18034.12       1045.3857    
    566000   176.14507     -18074.501      711.84509    
    567000   166.98173     -18077.404      254.28553    
    568000   182.89635     -18009.112      1368.1803    
    569000   189.85708     -17996.865      780.05562    
    570000   181.83924     -17991.617      1211.3261    
    571000   175.64042     -18051.975      840.75954    
    572000   177.98876     -18029.948      469.44859    
    573000   185.01874     -17995.679      934.77458    
    574000   182.48418     -18013.745      953.66386    
    575000   171.61645     -18049.318      1075.7596    
    576000   180.15891     -18039.521      551.23989    
    577000   169.7052      -18060.758      1088.909     
    578000   178.1988      -18028.505      1111.9618    
    579000   180.91161     -17995.929      1075.408     
    580000   172.05611     -18036.641      877.41203    
    581000   175.04025     -18006.697      1127.8754    
    582000   185.79224     -17979.301      1547.7767    
    583000   179.29226     -18001.599      1270.2049    
    584000   175.82089     -17995.945      1490.8678    
    585000   169.40617     -18079.192      650.39862    
    586000   185.73551     -17972.201      1102.4421    
    587000   187.54631     -17968.38       1285.8636    
    588000   182.29463     -17989.327      1231.1988    
    589000   176.88876     -18021.35       1142.423     
    590000   185.78433     -17972.617      1167.9342    
    591000   182.69736     -17962.922      1508.9165    
    592000   182.8003      -17988.85       1350.2744    
    593000   173.53398     -18028.302      1432.6209    
    594000   178.64508     -17982.878      1161.5649    
    595000   178.47404     -17998.982      1443.8194    
    596000   173.79131     -18019.264      1315.1057    
    597000   171.5859      -18056.552      1208.2973    
    598000   174.7208      -17982.546      1273.217     
    599000   181.91592     -17969.529      1317.0633    
    600000   179.35262     -17953.778      1255.0291    
    601000   170.9066      -17987.725      1429.1156    
    602000   183.1306      -17971.418      1457.0267    
    603000   181.03159     -17903.189      1866.8688    
    604000   168.81182     -17985.378      1488.9743    
    605000   190.35444     -17942.048      1355.0173    
    606000   184.19263     -17944.272      1776.8254    
    607000   190.55101     -17949.875      1375.1949    
    608000   177.08729     -17947.585      1045.1704    
    609000   178.06961     -17959.966      1528.5907    
    610000   177.88651     -17995.593      1210.9184    
    611000   176.49119     -17999.89       1463.6013    
    612000   175.40198     -18002.948      1167.0658    
    613000   185.40441     -17961.688      1384.923     
    614000   187.74377     -17961.781      1121.9365    
    615000   176.55447     -17965.345      1067.724     
    616000   183.30887     -17977.785      936.03432    
    617000   188.63633     -17998.777      429.28228    
    618000   177.45739     -17980.719      941.01327    
    619000   169.88522     -18018.283      750.25048    
    620000   168.72127     -18003.571      1091.2197    
    621000   176.90468     -17974.706      780.93826    
    622000   175.39769     -17979.321      1050.4222    
    623000   180.62465     -17976.394      1181.9608    
    624000   169.44203     -18001.031      913.62169    
    625000   171.59916     -18043.548      972.30562    
    626000   186.35348     -17963.82       1064.8498    
    627000   188.97642     -17944.225      1157.6087    
    628000   186.07918     -17975.588      1293.6945    
    629000   169.6646      -17997.268      733.39963    
    630000   172.05222     -18007.982      1133.4241    
    631000   188.27648     -17949.902      907.47943    
    632000   183.4053      -17955.75       1181.0151    
    633000   162.35931     -18012.608      1060.8095    
    634000   176.94548     -18005.967      883.92852    
    635000   175.47273     -17987.688      1356.8242    
    636000   177.94454     -17954.387      852.77384    
    637000   185.90052     -17998.47       884.56681    
    638000   183.61293     -18005.606      749.47249    
    639000   171.64084     -18012.346      1417.0004    
    640000   174.15835     -18022.317      1170.6945    
    641000   180.28556     -17989.767      856.06776    
    642000   180.27522     -17980.209      892.60751    
    643000   182.29913     -17973.662      829.12741    
    644000   174.56859     -18012.076      668.50354    
    645000   170.85636     -18014.152      969.26012    
    646000   177.86257     -18015.27       742.92821    
    647000   181.57112     -17991.875      1041.7661    
    648000   176.2007      -17985.244      1239.8621    
    649000   181.21118     -17990.328      931.77913    
    650000   174.98553     -18001.569      981.97861    
    651000   173.07354     -18036.016      916.71964    
    652000   173.42622     -18015.035      910.98812    
    653000   180.69734     -18010.354      624.43836    
    654000   179.32473     -17995.531      595.74002    
    655000   182.80211     -18007.106      761.73714    
    656000   177.41108     -18008.179      724.87218    
    657000   176.33772     -17986.008      1134.1085    
    658000   192.10618     -17971.867      1182.0787    
    659000   181.65437     -17961.587      723.8743     
    660000   178.84525     -17995.182      975.0822     
    661000   185.90006     -18021.887      643.83813    
    662000   174.29663     -18002.035      1355.6971    
    663000   188.46527     -17953.193      546.99005    
    664000   182.82111     -17980.658      821.1413     
    665000   178.25668     -18021.524      1066.0613    
    666000   166.70441     -18056.403      786.13885    
    667000   179.19083     -18038.146      672.96012    
    668000   176.2416      -18015.241      1065.8813    
    669000   177.67801     -18019.394      1273.459     
    670000   176.91608     -18030.064      484.15714    
    671000   176.44395     -18018.061      1195.5856    
    672000   184.44371     -18007.885      681.97212    
    673000   189.46266     -17978.524      956.09934    
    674000   182.93804     -17999.854      1047.557     
    675000   174.51471     -18004.439      701.95045    
    676000   174.95514     -18014.95       836.21675    
    677000   179.68238     -17995.535      952.69963    
    678000   173.96796     -18017.507      951.20712    
    679000   175.79777     -18014.064      1101.0096    
    680000   174.36154     -17968.97       1167.3795    
    681000   185.32894     -17978.292      1362.6606    
    682000   174.38412     -18026.007      1290.0746    
    683000   172.88088     -18058.729      792.70247    
    684000   172.2698      -18051.381      696.54686    
    685000   180.85215     -17977.912      945.08668    
    686000   180.63046     -17998.637      1352.094     
    687000   174.74688     -18004.498      795.64011    
    688000   180.53319     -17989.746      1106.5397    
    689000   183.08684     -17953.125      1312.1651    
    690000   172.47905     -18030.12       778.24062    
    691000   183.56377     -18037.046      685.69294    
    692000   186.78773     -17950.561      1289.6252    
    693000   173.21267     -17990.632      646.15088    
    694000   179.30908     -17996.749      536.18295    
    695000   179.81227     -17972.089      1226.1227    
    696000   185.00632     -17971.537      1235.3044    
    697000   181.11131     -17979.031      1302.3006    
    698000   174.16323     -18007.614      673.309      
    699000   175.1174      -18015.545      189.16885    
    700000   180.83514     -17989.884      160.53155    
    701000   181.63191     -17993.819      566.49672    
    702000   170.05353     -17994.869      734.57069    
    703000   171.66137     -18027.267      472.03544    
    704000   178.89935     -18032.148      656.19463    
    705000   180.13697     -18005.51       400.68018    
    706000   189.02655     -17970.708      639.86576    
    707000   192.01773     -17963.451      734.92255    
    708000   185.97891     -18006.714      400.92815    
    709000   174.4523      -18038.481      635.81027    
    710000   168.46048     -18061.497     -16.338919    
    711000   171.60576     -18017.881      707.07429    
    712000   182.164       -17968.115      514.71794    
    713000   186.19623     -17968.75       412.63896    
    714000   178.05474     -18010.69       404.37359    
    715000   178.1938      -18026.789      193.84676    
    716000   180.66895     -18043.702      643.60629    
    717000   177.7564      -18051.622      550.20647    
    718000   188.35102     -17998.121      704.7168     
    719000   185.64538     -17988.895      804.22581    
    720000   175.74071     -18041.802      863.85446    
    721000   169.7505      -18074.511      470.99279    
    722000   197.58701     -17965.888      975.85975    
    723000   177.44135     -18042.091      739.04715    
    724000   176.68167     -18064.203      455.53626    
    725000   176.41205     -18089.948      371.69731    
    726000   171.66353     -18101.489      534.85781    
    727000   167.29681     -18117.808      980.56256    
    728000   183.42684     -18048.804      522.55163    
    729000   184.16982     -18026.367      564.39409    
    730000   172.96476     -18117.193      13.974765    
    731000   184.73417     -18036.933      522.0659     
    732000   179.44271     -18047.265      344.29323    
    733000   172.84099     -18107.403     -182.67443    
    734000   171.15215     -18102.698      358.68912    
    735000   171.92967     -18077.104      587.87043    
    736000   180.36205     -18061.645      348.50409    
    737000   177.03913     -18023.759      1057.3175    
    738000   188.47555     -17987.735      700.06828    
    739000   186.31159     -18073.298      576.00851    
    740000   172.18316     -18086.349      585.45274    
    741000   178.9958      -18065.565      972.7169     
    742000   177.67543     -18072.728      565.40504    
    743000   176.02652     -18049.117      366.05345    
    744000   171.9736      -18073.165      812.94774    
    745000   180.57692     -18043.085      1009.6504    
    746000   173.771       -18066.454      341.56749    
    747000   171.73353     -18085.746      674.32179    
    748000   177.41475     -18070.186      471.22908    
    749000   189.12581     -18045.234      730.84939    
    750000   183.36031     -18060.977      548.16264    
    751000   172.9067      -18079.469      465.44735    
    752000   180.96475     -18060.049      769.38725    
    753000   171.9825      -18041.097      1199.755     
    754000   183.71543     -18043.564      521.22796    
    755000   175.55435     -18087.289      377.179      
    756000   183.1334      -18088.818      390.50418    
    757000   176.96483     -18053.012      791.63381    
    758000   188.7302      -18043.259      547.84635    
    759000   190.21015     -18017.959      810.18479    
    760000   178.48124     -18044.445      498.49446    
    761000   176.06097     -18065.229      572.07656    
    762000   167.38469     -18081.721      609.99399    
    763000   176.50222     -18055.667      730.54624    
    764000   175.12375     -18097.195      903.28154    
    765000   177.47337     -18117.839      493.38547    
    766000   181.56351     -18087.466      213.76981    
    767000   175.9267      -18073.082      997.23841    
    768000   185.51256     -18052.291      616.63537    
    769000   180.03479     -18069.126      426.25036    
    770000   169.44957     -18094.079      692.32656    
    771000   178.68773     -18078.207      325.61513    
    772000   187.25645     -18005.555      740.07966    
    773000   178.11392     -18085.603      332.88393    
    774000   176.95578     -18085.937      350.09862    
    775000   183.24663     -18050.93       744.49963    
    776000   184.49914     -18025.447      696.52221    
    777000   170.45929     -18096.721      616.92425    
    778000   171.60818     -18084.311      397.44174    
    779000   171.75896     -18073.865      841.92182    
    780000   186.56474     -18053.477      190.08172    
    781000   179.54615     -18109.662      573.06115    
    782000   174.11418     -18104.104      614.75037    
    783000   174.65625     -18074.021      512.30032    
    784000   176.89581     -18049.7        550.08408    
    785000   182.41912     -18054.889      836.16006    
    786000   178.08706     -18081.872      451.22898    
    787000   177.75587     -18087.515      442.09933    
    788000   177.40382     -18066.071      305.35507    
    789000   184.66586     -18074.232      355.83976    
    790000   179.23172     -18103.802      933.3748     
    791000   160.56503     -18105.572      552.79149    
    792000   170.40574     -18073.33       949.62585    
    793000   183.91084     -18063          831.03317    
    794000   182.6504      -18052.222      511.37251    
    795000   178.03636     -18086.838      570.33353    
    796000   171.83134     -18140.599      376.77862    
    797000   177.99039     -18087.937      387.03535    
    798000   178.65641     -18071.567      630.61429    
    799000   179.80919     -18080.153      217.19897    
    800000   169.98282     -18119.759      686.34023    
    801000   170.36886     -18117.694      332.46488    
    802000   170.98892     -18102.52       535.33009    
    803000   172.05116     -18092.004      750.22562    
    804000   181.37639     -18081.127      535.09608    
    805000   179.3267      -18103.858      225.06328    
    806000   180.89041     -18101.232      33.374109    
    807000   180.70822     -18078.43       286.13111    
    808000   175.89872     -18077.393      385.27165    
    809000   179.80309     -18072.741      694.20796    
    810000   185.84359     -18050.178      515.58041    
    811000   177.68024     -18050.19       479.31171    
    812000   174.75456     -18092.114      1018.4098    
    813000   185.15275     -18082.851      404.01903    
    814000   178.56407     -18078.861      590.09482    
    815000   181.55234     -18040.508      639.80164    
    816000   182.63361     -18050.197      414.75885    
    817000   181.75935     -18061.313      648.19058    
    818000   178.65411     -18110.432      508.08511    
    819000   177.50541     -18079.233      35.884048    
    820000   179.12478     -18060.425      746.56524    
    821000   185.52416     -18045.225     -0.3239248    
    822000   174.14378     -18065.075      198.83667    
    823000   174.92642     -18088.554      269.18428    
    824000   173.12361     -18048.318      1131.2669    
    825000   183.98224     -18044.785      637.75259    
    826000   184.53989     -18077.669      760.26514    
    827000   173.37009     -18085.47       734.41851    
    828000   182.66898     -18029.139      941.12322    
    829000   167.0308      -18081.437      1044.3498    
    830000   173.236       -18102.373      774.93549    
    831000   181.912       -18086.386      285.8347     
    832000   183.10602     -18051.642      976.39531    
    833000   176.44222     -18082.598      665.99217    
    834000   165.2842      -18114.085      987.33888    
    835000   176.0551      -18119.123     -30.591232    
    836000   182.25082     -18055.029      281.59098    
    837000   174.65338     -18096.126      718.33076    
    838000   179.86345     -18038.019      667.28339    
    839000   182.53262     -18037.101      538.92973    
    840000   186.30651     -18051.001      487.46313    
    841000   177.38498     -18070.698      467.13332    
    842000   172.43905     -18099.681      678.03647    
    843000   168.26646     -18123.095      515.52378    
    844000   168.6633      -18089.528      841.51978    
    845000   181.53056     -18060.838      527.18405    
    846000   178.98248     -18084.625      584.0327     
    847000   184.02968     -18038.543      277.30182    
    848000   177.70377     -18044.447      1199.5237    
    849000   188.85491     -18104.66       534.09427    
    850000   179.84402     -18090.861      726.3884     
    851000   180.54641     -18066.498      802.56358    
    852000   188.04562     -18030.627      403.81723    
    853000   186.95671     -18073.55       285.48755    
    854000   179.0605      -18090.786      719.84961    
    855000   179.97752     -18097.659      303.28352    
    856000   179.0237      -18052.285      818.04096    
    857000   178.04981     -18070.372      495.40515    
    858000   164.59638     -18106.499      364.17368    
    859000   173.48222     -18082.116      664.09837    
    860000   171.19235     -18063.325      365.97359    
    861000   170.46319     -18082.381      465.6286     
    862000   169.13623     -18140.699      25.095839    
    863000   176.70922     -18112.258      323.60632    
    864000   169.4977      -18080.922      702.90864    
    865000   177.33829     -18067.272      399.08939    
    866000   182.29649     -18046.74       620.22504    
    867000   190.66769     -18034.409      915.61698    
    868000   182.3817      -18083.306      190.53214    
    869000   177.22602     -18084.861      424.52216    
    870000   177.10735     -18051.979      765.77254    
    871000   172.47666     -18085.627      882.12732    
    872000   175.97946     -18091.734      285.98158    
    873000   177.13147     -18080.705      565.77629    
    874000   171.08593     -18112.791      351.53219    
    875000   176.22753     -18090.323      563.81886    
    876000   186.21346     -18041.354      256.53605    
    877000   184.39276     -18053.923      790.67054    
    878000   180.61356     -18086.684      653.96333    
    879000   166.88478     -18096.24       499.31993    
    880000   180.6321      -18098.587      660.96688    
    881000   182.40985     -18074.364      755.18543    
    882000   181.86906     -18054.829      644.95706    
    883000   168.37193     -18128.975      630.62751    
    884000   178.13348     -18103.148      652.95089    
    885000   186.62061     -18074.522      310.39292    
    886000   178.47122     -18052.338      729.18981    
    887000   174.12238     -18067.357      637.30125    
    888000   176.02712     -18079.607      225.80965    
    889000   175.5013      -18088.955      339.04624    
    890000   176.56612     -18089.768      227.2054     
    891000   192.65504     -18041.972      631.85247    
    892000   180.38231     -18034.001      1071.2012    
    893000   186.66044     -18059.99       416.70548    
    894000   181.52671     -18074.749      375.92982    
    895000   169.05958     -18149.084      268.78657    
    896000   178.01553     -18056.85       614.42005    
    897000   175.67168     -18044.827      455.73661    
    898000   171.64432     -18088.478      521.45524    
    899000   172.83757     -18077.006      771.15499    
    900000   180.86138     -18055.545      878.95239    
    901000   172.60904     -18077.174      464.01963    
    902000   175.8345      -18104.502      369.06044    
    903000   174.77336     -18080.043      506.13412    
    904000   185.95333     -18043.581      164.84473    
    905000   177.92476     -18064.641      600.11747    
    906000   172.12097     -18129.514      426.80124    
    907000   174.94859     -18083.311      295.91339    
    908000   179.64778     -18046.448      654.63564    
    909000   179.986       -18045.15       726.08196    
    910000   187.84002     -18021.832      712.40667    
    911000   185.32963     -18068.903      300.7414     
    912000   176.82473     -18070.144      466.10083    
    913000   169.93695     -18092.219      180.31265    
    914000   177.71708     -18060.564      543.79809    
    915000   183.59651     -18048.06       974.17352    
    916000   179.85826     -18068.079      478.21367    
    917000   171.05743     -18115.931      91.395827    
    918000   169.17597     -18122.103      534.03695    
    919000   185.53136     -18064.312      240.38357    
    920000   186.42804     -18047.49       578.71646    
    921000   185.76119     -18078.061      421.90751    
    922000   178.3465      -18103.116      543.2096     
    923000   172.97475     -18119.357      340.5668     
    924000   164.45007     -18132.459      488.96112    
    925000   174.91988     -18084.151      761.38261    
    926000   183.70782     -18065.434      653.15335    
    927000   174.79055     -18139.059      338.64616    
    928000   185.2324      -18054.25       450.13912    
    929000   188.65106     -18046.167      1016.6669    
    930000   173.10272     -18159.005      178.32635    
    931000   184.6443      -18061.566      594.37608    
    932000   180.58967     -18067.122      590.12562    
    933000   177.29714     -18093.583      990.96993    
    934000   170.3204      -18116.634      219.36095    
    935000   170.87818     -18101.016      384.79307    
    936000   177.76023     -18058.576      648.53674    
    937000   176.88627     -18080.022      719.94292    
    938000   166.54221     -18106.838      521.65655    
    939000   184.38643     -18088.652      281.57929    
    940000   178.62713     -18062.361      476.29636    
    941000   172.12807     -18097.546      576.77       
    942000   171.88685     -18096.88       799.45856    
    943000   173.92537     -18069.133      1019.5184    
    944000   182.53974     -18045.895      401.12867    
    945000   183.71992     -18062.957      432.35832    
    946000   174.76547     -18096.311      538.1736     
    947000   178.65837     -18065.488      493.79702    
    948000   181.51152     -18053.504      265.17853    
    949000   176.2157      -18078.803      831.56806    
    950000   181.40772     -18069.153      239.33204    
    951000   190.54302     -18088.546      125.39959    
    952000   172.49644     -18123.539      342.9274     
    953000   180.18648     -18067.466      769.98189    
    954000   191.22189     -18080.995      202.82849    
    955000   173.06406     -18099.433      274.34708    
    956000   167.45566     -18147.54       174.6533     
    957000   179.97852     -18094.623      426.94873    
    958000   180.39082     -18063.178      487.05861    
    959000   179.98622     -18034.482      496.21045    
    960000   180.25475     -18083.598      154.52829    
    961000   170.49599     -18104.994      868.90659    
    962000   188.74821     -18037.314      426.9133     
    963000   189.28058     -18032.638      668.36449    
    964000   174.11797     -18100.818      340.09171    
    965000   177.47798     -18070.972      907.03678    
    966000   186.49162     -18051.291      567.73936    
    967000   181.10095     -18091.636      198.67699    
    968000   172.13181     -18084.323      461.40961    
    969000   186.57506     -18047.917      348.48444    
    970000   177.82652     -18043.869      443.59877    
    971000   179.18603     -18062.692      243.59668    
    972000   183.01262     -18079.285      303.39878    
    973000   165.20963     -18150.631     -48.862371    
    974000   177.16221     -18095.748      310.26937    
    975000   183.44426     -18073.121      220.57504    
    976000   164.90478     -18118.229      224.60845    
    977000   168.36889     -18142.003      439.63306    
    978000   178.61947     -18064.675      878.32044    
    979000   183.73452     -18072.861      255.84066    
    980000   174.86689     -18125.997     -6.4061416    
    981000   189.66787     -18050.852      904.0669     
    982000   179.34043     -18080.658      780.636      
    983000   171.59104     -18128.106      404.89793    
    984000   176.04863     -18095.933      593.48237    
    985000   180.86273     -18071.653      469.72724    
    986000   175.61902     -18105.302      516.54982    
    987000   181.64519     -18118.509      109.62091    
    988000   173.42203     -18073.789      733.28561    
    989000   175.79941     -18098.841      645.34138    
    990000   168.29169     -18133.388      294.7097     
    991000   180.22604     -18073.452      1012.0269    
    992000   178.0197      -18087.689      382.06192    
    993000   177.24161     -18094.737      357.84995    
    994000   173.74454     -18111.256      459.96759    
    995000   173.62033     -18062.289      659.85746    
    996000   177.27475     -18043.348      1032.352     
    997000   189.04523     -18065.134      185.07631    
    998000   179.06869     -18101.152      623.17925    
    999000   179.44756     -18100.717      672.60491    
   1000000   177.68064     -18072.909      757.93984    
   1001000   190.11781     -18015.177      755.52886    
   1002000   175.4177      -18091.128      118.71143    
   1003000   173.03033     -18098.582      530.43815    
   1004000   191.63396     -18038.674      446.25261    
   1005000   179.36203     -18048.161      790.63802    
   1006000   181.29819     -18074.24       598.32369    
   1007000   175.38348     -18080.684      507.71566    
   1008000   191.84335     -18056.603      372.31745    
   1009000   183.95115     -18083.282      505.54979    
   1010000   185.22232     -18082.826      312.5467     
   1011000   172.3237      -18128.03       358.99248    
   1012000   178.83519     -18117.34       186.84783    
   1013000   179.28813     -18081.765      467.21242    
   1014000   173.41195     -18071.719      514.5914     
   1015000   174.63585     -18126.113      531.85471    
   1016000   169.0984      -18102.998      291.41034    
   1017000   179.68758     -18043.845      676.75949    
   1018000   180.54971     -18057.807      353.85775    
   1019000   165.99234     -18137.02       313.76318    
   1020000   177.33983     -18097.322      265.05556    
   1021000   171.60442     -18077.6        822.58917    
   1022000   182.51642     -18054.742      872.61931    
   1023000   176.65849     -18080.805      649.56048    
   1024000   171.11936     -18130.292      166.75198    
   1025000   179.80027     -18117.008      251.49703    
   1026000   180.50967     -18054.153      896.92646    
   1027000   180.23243     -18066.975      858.6706     
   1028000   166.42174     -18141.866      464.08357    
   1029000   180.04768     -18079.49       864.81947    
   1030000   173.55082     -18057.824      451.92676    
   1031000   169.8742      -18088.587      987.05465    
   1032000   168.54313     -18114.947      457.6693     
   1033000   176.28275     -18112.85       398.52122    
   1034000   175.6776      -18108.916     -213.85325    
   1035000   175.07061     -18070.125      312.86004    
   1036000   187.04391     -18042.646      654.89376    
   1037000   173.93091     -18076.008      1021.2548    
   1038000   168.30398     -18119.178      364.58513    
   1039000   180.7441      -18093.321      527.55449    
   1040000   181.03208     -18045.897      933.73326    
   1041000   172.2415      -18090.092      406.50257    
   1042000   173.8673      -18080.797      930.90541    
   1043000   189.09587     -18050.559      510.91456    
   1044000   180.07804     -18084.083      456.39218    
   1045000   167.81927     -18107.347      844.81489    
   1046000   183.54975     -18072.313      487.07223    
   1047000   175.73962     -18089.027      404.05895    
   1048000   174.60403     -18107.681      170.46343    
   1049000   180.32239     -18095.981      484.66761    
   1050000   173.02163     -18082.37       402.28264    
   1051000   181.1118      -18058.181      402.74357    
   1052000   178.72821     -18091.97       483.48432    
   1053000   171.30094     -18123.287      500.86754    
   1054000   179.33414     -18128.584      218.66344    
   1055000   178.70113     -18094.861      582.61703    
   1056000   179.65532     -18091.001      546.66409    
   1057000   177.25252     -18086.097      623.26486    
   1058000   178.17471     -18031.963      886.15233    
   1059000   189.93893     -18051.263      379.24787    
   1060000   178.80405     -18056.892      656.40788    
   1061000   176.06516     -18089.545      771.03218    
   1062000   167.19996     -18148.61      -26.186786    
   1063000   170.10609     -18054.304      1142.4599    
   1064000   182.73098     -18066.503      779.31232    
   1065000   176.3227      -18101.312      753.00095    
   1066000   181.5888      -18082.248      539.5747     
   1067000   178.76053     -18066.709      656.03666    
   1068000   173.53192     -18095.431      840.67945    
   1069000   170.65789     -18108.931      392.51316    
   1070000   179.20684     -18082.037      270.79146    
   1071000   179.44989     -18114.717      496.14724    
   1072000   176.98228     -18098.91       720.67697    
   1073000   181.24789     -18035.965      831.05909    
   1074000   178.1983      -18068.964      476.62314    
   1075000   180.04857     -18081.005      707.34841    
   1076000   179.15889     -18094.013      634.30512    
   1077000   186.22823     -18029.321      866.65294    
   1078000   183.50128     -18057.475      443.99263    
   1079000   173.62247     -18084.592      590.14017    
   1080000   178.45364     -18095.105      533.74257    
   1081000   187.5895      -18091.835      311.75477    
   1082000   182.44741     -18066.226      625.5105     
   1083000   173.22833     -18077.101      378.16906    
   1084000   184.673       -18022.434      230.66838    
   1085000   185.28702     -18036.68       1162.6909    
   1086000   175.68208     -18072.751      577.98678    
   1087000   165.15889     -18097.391      663.03829    
   1088000   174.7505      -18074.898      606.29615    
   1089000   183.56783     -18048.722      580.46469    
   1090000   179.62258     -18058.738      704.85078    
   1091000   178.0498      -18089.043      129.90545    
   1092000   171.46526     -18111.376      482.7766     
   1093000   169.61698     -18078.434      383.32639    
   1094000   179.86974     -18057.093      1000.2415    
   1095000   176.92183     -18069.294      968.90059    
   1096000   173.65497     -18119.543      873.20892    
   1097000   164.79537     -18128.363      841.32878    
   1098000   178.33016     -18069.627      756.35022    
   1099000   187.25925     -18080.507      236.57163    
   1100000   166.61632     -18140.555      354.56136    
   1101000   178.44992     -18117.665      135.32267    
   1102000   182.67613     -18082.454      373.09042    
   1103000   181.72573     -18061.822      694.46978    
   1104000   184.95411     -18080.612      799.98242    
   1105000   171.00713     -18123.112      611.24287    
   1106000   170.27226     -18105.844      100.48514    
   1107000   179.04835     -18070.943      453.78857    
   1108000   182.31908     -18039.992      874.66164    
   1109000   177.22209     -18030.769      478.82637    
   1110000   181.25372     -18032.317      705.24798    
   1111000   177.25695     -18055.881      839.18768    
   1112000   175.47355     -18063.216      611.7674     
   1113000   186.59161     -18029.524      589.84255    
   1114000   178.55128     -18029.92       772.69147    
   1115000   179.60693     -18061.807      694.48979    
   1116000   170.72564     -18070.953      411.24521    
   1117000   180.51965     -18064.465      701.5956     
   1118000   190.47438     -18024.168      977.72807    
   1119000   182.33939     -18023.619      671.19154    
   1120000   181.21589     -18053.666      691.21761    
   1121000   169.99059     -18085.611      618.77529    
   1122000   165.48818     -18132.483      617.41942    
   1123000   177.08929     -18054.334      626.33363    
   1124000   174.27723     -18054.501      1037.7578    
   1125000   169.2879      -18085.651      548.31563    
   1126000   169.97453     -18105.979      716.59842    
   1127000   174.10352     -18088.138      544.47423    
   1128000   175.80381     -18055.931      687.39191    
   1129000   178.80855     -18056.202      581.06564    
   1130000   168.49819     -18125.163      288.38395    
   1131000   178.70638     -18092.58       413.86666    
   1132000   184.34419     -18082.817      123.20185    
   1133000   174.11234     -18038.44       474.03815    
   1134000   170.36775     -18056.22       481.23832    
   1135000   178.84745     -18077.189      499.74136    
   1136000   175.53749     -18050.529      1016.253     
   1137000   175.79446     -18068.075      278.8422     
   1138000   167.28184     -18100.8        743.63782    
   1139000   182.74643     -18063.667      197.39945    
   1140000   175.45679     -18074.002      316.60928    
   1141000   186.1548      -18042.677      187.09952    
   1142000   184.35601     -18023.796      389.46901    
   1143000   187.09719     -18063.459      140.91943    
   1144000   172.06506     -18082.829      723.04917    
   1145000   181.59012     -18037.649      799.14929    
   1146000   187.06518     -18046.812      91.979764    
   1147000   165.90831     -18110.791      211.30729    
   1148000   174.65581     -18075.559     -16.820243    
   1149000   190.66053     -18034.34       364.56073    
   1150000   172.47222     -18087          514.54919    
   1151000   170.97983     -18102.283      712.95097    
   1152000   167.93323     -18073.418      371.90941    
   1153000   177.71678     -18065.82       1030.209     
   1154000   182.70072     -18059.061      810.55882    
   1155000   169.7738      -18117.581      555.42402    
   1156000   168.50198     -18110.85       328.87521    
   1157000   181.62923     -18051.924      482.67246    
   1158000   180.03182     -18076.895      365.18118    
   1159000   179.40533     -18088.083      398.83691    
   1160000   179.35811     -18058.845      510.30649    
   1161000   179.2971      -18047.718      753.98064    
   1162000   173.44553     -18042.715      848.87031    
   1163000   171.53161     -18080.361      384.8847     
   1164000   169.04713     -18078.741      591.73951    
   1165000   179.31833     -18072.86       143.05956    
   1166000   175.0539      -18058.595      347.84294    
   1167000   179.64424     -18078.917      170.40928    
   1168000   177.62103     -18113.553      498.43819    
   1169000   173.72715     -18105.057      610.29605    
   1170000   176.8356      -18082.519      663.81337    
   1171000   181.18705     -18062.483      625.83168    
   1172000   190.50179     -18007.972      462.03966    
   1173000   173.48026     -18092.198      786.3387     
   1174000   161.61244     -18091.667      882.57188    
   1175000   177.72991     -18064.609      448.10264    
   1176000   179.74172     -18035.355      787.42604    
   1177000   178.65075     -18092.82       335.12322    
   1178000   177.6167      -18094.899      471.60031    
   1179000   177.97404     -18067.048      349.50804    
   1180000   191.29476     -18056.398      712.73447    
   1181000   184.1291      -18047.992      296.26107    
   1182000   183.35397     -18088.245      508.66492    
   1183000   188.67827     -18031.447      368.38133    
   1184000   168.01013     -18049.724      824.88432    
   1185000   177.56298     -18086.994      645.1136     
   1186000   174.44856     -18072.524      529.27128    
   1187000   186.24303     -18035.9        853.93366    
   1188000   181.41998     -18045.871      831.95422    
   1189000   168.75427     -18087.18       887.35871    
   1190000   172.10955     -18076.413      680.1695     
   1191000   185.39289     -17991.693      713.91276    
   1192000   175.74832     -18074.409      577.10382    
   1193000   179.24018     -18072.313      474.46511    
   1194000   178.69648     -18063.538      655.16527    
   1195000   177.33836     -18070.48       695.81805    
   1196000   184.06153     -18048.537      593.86081    
   1197000   187.84823     -18022.791      772.92779    
   1198000   173.37449     -18016.216      868.34432    
   1199000   179.73308     -18077.294      641.47419    
   1200000   175.67735     -18074.76       697.59186    
   1201000   180.0586      -18048.926      939.76905    
   1202000   177.78441     -18051.241      960.37436    
   1203000   179.25115     -18087.396      386.16028    
   1204000   171.10511     -18087.484      231.51198    
   1205000   181.86389     -18057.817      198.52666    
   1206000   190.73236     -18029.626      798.82312    
   1207000   177.17259     -18049.849      721.40776    
   1208000   168.85694     -18083.482      807.01956    
   1209000   169.74738     -18091.28       492.81049    
   1210000   181.61921     -18041.508      340.70632    
   1211000   176.80936     -18049.393      630.81776    
   1212000   170.79557     -18126.322      379.6909     
   1213000   174.47592     -18061.104      677.99569    
   1214000   177.30827     -18053.07       629.08146    
   1215000   176.38315     -18036.029      751.32809    
   1216000   175.32016     -18067.076      862.73979    
   1217000   164.15704     -18134.83       470.84903    
   1218000   180.70853     -18061.762      440.90046    
   1219000   179.99431     -18040.151      852.59076    
   1220000   180.51887     -18019.781      308.23705    
   1221000   178.36447     -18041.679      488.94877    
   1222000   176.62707     -18072.39       452.59638    
   1223000   174.48151     -18074.266      567.83465    
   1224000   193.62027     -17997.566      703.59169    
   1225000   171.65488     -18050.139      804.51511    
   1226000   180.9768      -18067.683      284.38822    
   1227000   175.20424     -18061.323      506.67622    
   1228000   181.31194     -18016.078      585.02533    
   1229000   192.18388     -18031.382      170.79487    
   1230000   187.23072     -18043.764      174.03163    
   1231000   180.40869     -18080.926      163.73215    
   1232000   171.8623      -18079.177      816.36179    
   1233000   172.71979     -18093.317      0.17618562   
   1234000   181.20246     -18056.325      806.98598    
   1235000   184.93964     -18043.53       290.05058    
   1236000   172.29076     -18070.009      139.39018    
   1237000   178.83874     -18091.98      -164.81508    
   1238000   182.30054     -18025.804      419.80624    
   1239000   178.64083     -18032.7        462.2551     
   1240000   178.00682     -18061.466      610.39724    
   1241000   173.9624      -18098.214      191.4523     
   1242000   169.72653     -18081.39       393.23251    
   1243000   181.06237     -18078.208      265.64654    
   1244000   181.37232     -18045.667     -57.845456    
   1245000   177.55071     -18078.699      575.71069    
   1246000   162.10379     -18101.618      215.68576    
   1247000   181.75336     -18069.823      721.76771    
   1248000   185.35214     -18048.819      431.10729    
   1249000   173.70485     -18075.569      478.17217    
   1250000   177.5445      -18087.943      320.66151    
   1251000   169.87766     -18107.793      237.47921    
   1252000   174.56682     -18073.928      173.09711    
   1253000   189.2018      -18065.074      68.400868    
   1254000   171.23733     -18097.088      529.64095    
   1255000   182.11767     -18071.084      116.76382    
   1256000   176.06292     -18060.599      574.64749    
   1257000   177.26332     -18087.542      314.22319    
   1258000   177.21642     -18057.083      724.06506    
   1259000   184.25552     -18032.493      612.87237    
   1260000   174.8372      -18065.028      485.86252    
   1261000   172.63078     -18063.84       1045.8287    
   1262000   179.72198     -18059.792      577.10402    
   1263000   182.39549     -18031.675      152.51062    
   1264000   178.35509     -18025.928      539.63222    
   1265000   168.63014     -18156.566     -120.76181    
   1266000   179.85752     -18054.18      -201.30251    
   1267000   181.59002     -18043.318      499.95616    
   1268000   181.88208     -18015.668      758.05785    
   1269000   176.84436     -18033.912      449.13397    
   1270000   171.93405     -18068.807      750.4714     
   1271000   182.33009     -18048.3        555.38452    
   1272000   175.94353     -18042.703      434.68291    
   1273000   184.6878      -18002.048      247.71431    
   1274000   181.00447     -18020.74       976.98685    
   1275000   188.43884     -18059.132      431.72658    
   1276000   172.01772     -18062.365      501.5045     
   1277000   181.35622     -17998.794      674.4892     
   1278000   181.61573     -18038.449      492.72084    
   1279000   164.53967     -18075.89       458.32866    
   1280000   182.84149     -18038.772      553.92221    
   1281000   183.65847     -18021.98       731.38151    
   1282000   181.72163     -18003.583      629.59923    
   1283000   172.65183     -18052.444      454.22508    
   1284000   185.19363     -18059.079      464.49718    
   1285000   182.06409     -18041.487      978.51656    
   1286000   182.08329     -18051.842      603.0955     
   1287000   178.32129     -18060.422      699.70105    
   1288000   168.34898     -18104.847      212.35649    
   1289000   169.13442     -18094.154      463.60613    
   1290000   183.30096     -18064.557      413.80243    
   1291000   173.54909     -18040.582      830.44102    
   1292000   181.71383     -18017.24       499.72401    
   1293000   180.7315      -18024.135      440.33348    
   1294000   174.92907     -18075.294      1079.9734    
   1295000   175.18304     -18064.764     -44.183937    
   1296000   173.88091     -18050.263      900.48765    
   1297000   176.30833     -18058.967      413.29952    
   1298000   178.59436     -18075.845      547.14888    
   1299000   182.71484     -18070.146      230.59331    
   1300000   180.05984     -18076.571      626.35366    
   1301000   183.2707      -18037.955      302.05941    
   1302000   187.20779     -18013.077      472.65746    
   1303000   191.58324     -18051.907     -211.35594    
   1304000   184.15089     -18088.014     -50.260533    
   1305000   171.62777     -18096.314      528.78805    
   1306000   172.37868     -18126.832     -87.57531     
   1307000   169.53982     -18085.973      258.69321    
   1308000   181.55768     -18058.036      551.41642    
   1309000   184.41567     -18059.347      563.40328    
   1310000   178.51326     -18100.645      83.2994      
   1311000   176.9542      -18117.419      609.84514    
   1312000   177.83429     -18098.689      592.2937     
   1313000   181.49199     -18067.799      310.21127    
   1314000   180.35371     -18095.588     -44.206694    
   1315000   179.90382     -18098.339     -132.54371    
   1316000   179.89473     -18082.364      524.44679    
   1317000   175.10784     -18107.384     -38.061124    
   1318000   168.38645     -18121.621      102.56164    
   1319000   179.71045     -18113.489     -16.749545    
   1320000   178.40079     -18095.897     -96.658248    
   1321000   178.18454     -18083.084      415.69984    
   1322000   173.80829     -18070.368      492.67951    
   1323000   167.52425     -18123.768      150.97965    
   1324000   179.11827     -18120.52       23.237387    
   1325000   176.31724     -18107.715     -133.00719    
   1326000   193.73385     -18012.971      283.85375    
   1327000   182.59013     -18084.395      188.76836    
   1328000   172.7278      -18097.382      518.79584    
   1329000   178.88583     -18061.891      546.33028    
   1330000   178.04244     -18072.136      258.93108    
   1331000   173.6538      -18104.566      9.0613856    
   1332000   181.06975     -18061.752      274.39247    
   1333000   179.14836     -18053.236      450.71263    
   1334000   183.28445     -18076.938      233.05381    
   1335000   182.51689     -18108.518     -124.11509    
   1336000   173.15485     -18137.262      446.99663    
   1337000   174.88856     -18107.704      308.77389    
   1338000   174.94845     -18071.216      399.42478    
   1339000   172.426       -18049.704      594.12903    
   1340000   168.8743      -18101.834      243.67194    
   1341000   173.48645     -18103.326     -107.01515    
   1342000   168.50129     -18103.596      450.62784    
   1343000   187.26399     -18030.896     -47.79439     
   1344000   178.42591     -18055.941      334.29555    
   1345000   181.8674      -18091.473      319.83991    
   1346000   169.55431     -18125.928      386.73846    
   1347000   172.69193     -18102.967      263.84181    
   1348000   185.11233     -18080.322      249.56527    
   1349000   175.07663     -18104.383      732.52887    
   1350000   166.3323      -18107.932      840.16642    
   1351000   173.66735     -18090.52       365.98576    
   1352000   181.3207      -18088.805      59.136045    
   1353000   177.01795     -18107.223      188.88486    
   1354000   176.01279     -18116.951      54.712983    
   1355000   175.32441     -18100.959      205.57499    
   1356000   190.58607     -18032.478      405.62533    
   1357000   172.20411     -18059.054      205.96218    
   1358000   176.57417     -18104.004     -81.621163    
   1359000   178.94786     -18111.985     -63.327988    
   1360000   176.57972     -18131.225     -19.939393    
   1361000   171.91298     -18134.923      97.7187      
   1362000   171.37808     -18090.051      660.7659     
   1363000   185.00068     -18072.325      248.06873    
   1364000   178.05815     -18102.233      281.9151     
   1365000   171.56715     -18140.885      234.53623    
   1366000   173.79572     -18122.306     -100.93383    
   1367000   169.78965     -18102.49       470.3007     
   1368000   187.15335     -18026.501      302.42898    
   1369000   183.87204     -18046.703      587.56378    
   1370000   183.89387     -18063.928     -107.14544    
   1371000   178.82326     -18110.951      460.50934    
   1372000   168.76267     -18132.623      196.62543    
   1373000   188.13162     -18100.847      30.847639    
   1374000   179.68951     -18085.968      383.36272    
   1375000   171.19935     -18105.059      625.40137    
   1376000   180.00904     -18113.071      644.70251    
   1377000   186.26758     -18092.358     -109.1191     
   1378000   175.1111      -18086.962      445.63464    
   1379000   172.28421     -18119.333      326.20942    
   1380000   176.87144     -18130.189      252.74183    
   1381000   169.69982     -18112.212      326.12138    
   1382000   177.02816     -18075.392      580.22728    
   1383000   177.8171      -18068.584      575.71402    
   1384000   176.90523     -18156.05       54.649236    
   1385000   173.45251     -18113.45      -195.9943     
   1386000   172.91382     -18089.764      204.38442    
   1387000   170.55752     -18118.898      546.27298    
   1388000   175.59913     -18114.548      283.73168    
   1389000   178.16733     -18084.401      122.3645     
   1390000   170.12177     -18116.873      569.07688    
   1391000   173.04266     -18117.559      161.32287    
   1392000   182.00113     -18060.621     -40.102356    
   1393000   178.67465     -18080.525      616.40363    
   1394000   156.34296     -18138.705      165.64193    
   1395000   175.19667     -18121.337      210.63622    
   1396000   176.96265     -18094.724      180.94268    
   1397000   185.5963      -18081.804      40.245488    
   1398000   177.4668      -18074.225      335.61689    
   1399000   184.09427     -18012.31       337.77278    
   1400000   177.44043     -18100.024      655.07506    
   1401000   173.64636     -18076.387      267.37833    
   1402000   176.09669     -18113.745      13.176578    
   1403000   166.00294     -18098.885      73.362438    
   1404000   190.43929     -18017.038     -229.0967     
   1405000   174.14501     -18131.468      50.217152    
   1406000   168.79117     -18126.226     -404.41062    
   1407000   180.38975     -18088.958      546.4068     
   1408000   179.60614     -18120.259     -345.59321    
   1409000   178.38677     -18156.797     -330.01176    
   1410000   176.52713     -18138.549     -306.10032    
   1411000   184.46858     -18100.558      69.362032    
   1412000   176.32516     -18132.135      31.923759    
   1413000   176.5516      -18098.294     -185.59456    
   1414000   180.02816     -18066.997     -99.125746    
   1415000   184.04629     -18093.755      605.06975    
   1416000   184.75457     -18110.032     -324.19816    
   1417000   170.80934     -18173.53      -574.39008    
   1418000   182.59559     -18122.596     -245.86976    
   1419000   175.93015     -18105.644      364.07128    
   1420000   177.67737     -18112.668     -243.43472    
   1421000   170.35167     -18160.953     -150.10564    
   1422000   169.7841      -18151.882      115.9392     
   1423000   184.75065     -18127.489     -33.927657    
   1424000   184.36508     -18124.595      308.05386    
   1425000   178.37907     -18089.346      574.41703    
   1426000   180.0902      -18104.689      105.67724    
   1427000   183.38769     -18130.677     -419.41765    
   1428000   184.10798     -18134.279     -116.05387    
   1429000   169.14435     -18146.961     -147.18899    
   1430000   183.58923     -18112.705     -164.61253    
   1431000   177.96588     -18097.51       84.860083    
   1432000   174.12581     -18115.475      111.94038    
   1433000   169.32544     -18150.766     -220.20801    
   1434000   175.63248     -18129.128     -314.55615    
   1435000   186.30828     -18070.562     -113.30779    
   1436000   176.5781      -18102.673      133.31329    
   1437000   178.15442     -18123.941     -183.55129    
   1438000   181.35794     -18098.642     -317.02603    
   1439000   181.90848     -18070.681      159.26048    
   1440000   179.3497      -18070.442      456.66211    
   1441000   174.71864     -18130.947      201.07533    
   1442000   177.6531      -18110.757     -126.14915    
   1443000   175.7659      -18092.404      256.27141    
   1444000   181.92992     -18131.541     -232.45662    
   1445000   174.93485     -18116.359     -315.59785    
   1446000   181.37886     -18107.773      182.03307    
   1447000   173.35357     -18125.515     -140.8925     
   1448000   176.16605     -18156.325     -206.95583    
   1449000   175.91325     -18157.485     -148.70927    
   1450000   176.35257     -18116.019      128.97375    
   1451000   178.39308     -18103.368     -16.500018    
   1452000   183.26041     -18059.953     -61.115234    
   1453000   179.35174     -18084.971     -25.387094    
   1454000   178.34678     -18116.839      257.93685    
   1455000   172.47644     -18144.376     -458.36797    
   1456000   186.8605      -18080.196      184.91267    
   1457000   179.0181      -18089.563      574.75836    
   1458000   177.76539     -18118.506     -8.3101907    
   1459000   177.94663     -18133.928     -91.90585     
   1460000   170.1311      -18147.947     -247.67237    
   1461000   175.51503     -18102.193      318.32748    
   1462000   161.8589      -18140.589      348.94197    
   1463000   176.18229     -18137.838     -77.284888    
   1464000   180.53619     -18117.203      27.494353    
   1465000   182.23697     -18090.325     -200.63576    
   1466000   178.83811     -18126.73      -513.43926    
   1467000   179.79646     -18136.712     -217.28182    
   1468000   176.53228     -18131.386     -266.9304     
   1469000   190.4752      -18055.114      244.60513    
   1470000   177.78952     -18106.217     -35.534179    
   1471000   179.29105     -18122.041     -195.75426    
   1472000   171.11324     -18139.107     -17.290171    
   1473000   181.94578     -18105.087      391.61354    
   1474000   174.0429      -18126.817      84.372014    
   1475000   178.13996     -18157.73      -38.632834    
   1476000   174.77723     -18084.79       274.92126    
   1477000   182.98379     -18126.785     -126.95027    
   1478000   175.8878      -18144.716     -225.67774    
   1479000   188.24617     -18115.704     -77.699085    
   1480000   179.24054     -18106.13       48.265945    
   1481000   189.0214      -18043.419      422.58018    
   1482000   173.57564     -18122.43       75.69946     
   1483000   175.05602     -18122.903      75.724203    
   1484000   182.70764     -18087.437      248.07567    
   1485000   165.44449     -18153.568     -263.3968     
   1486000   172.66202     -18165.621     -249.44777    
   1487000   172.51084     -18144.863     -220.36408    
   1488000   178.56518     -18127.617     -59.289151    
   1489000   179.65827     -18094.165     -102.0969     
   1490000   175.96434     -18112.274     -223.81714    
   1491000   182.02661     -18082.962     -10.829665    
   1492000   185.56129     -18073.512      274.78117    
   1493000   190.43516     -18069.39       388.94086    
   1494000   184.32806     -18112.786      141.06254    
   1495000   175.19552     -18116.487     -75.829696    
   1496000   182.75232     -18082.437      76.401854    
   1497000   181.39984     -18101.451     -47.760748    
   1498000   168.23563     -18175.295     -199.95673    
   1499000   175.52178     -18161.97      -55.227376    
   1500000   180.29195     -18125.167     -89.429752    
   1501000   176.82189     -18148.759     -513.99803    
   1502000   178.4021      -18148.894     -269.70184    
   1503000   187.50664     -18124.995     -354.97842    
   1504000   169.54459     -18112.994      162.28548    
   1505000   179.05575     -18083.05      -463.2008     
   1506000   180.0498      -18139.972     -353.59845    
   1507000   172.0405      -18146.606     -751.05449    
   1508000   173.78631     -18144.158     -97.164651    
   1509000   182.46443     -18104.465      11.44408     
   1510000   168.23697     -18159.052     -266.19476    
   1511000   176.5509      -18157.578     -52.092328    
   1512000   175.58422     -18111.333      316.99977    
   1513000   184.81882     -18093.237     -291.37451    
   1514000   182.04941     -18146.591     -359.1502     
   1515000   170.68653     -18155.768     -39.677862    
   1516000   180.90152     -18109.385      73.332816    
   1517000   177.66066     -18091.219      315.1147     
   1518000   166.1569      -18157.597     -18.309852    
   1519000   170.83561     -18164.189     -460.17382    
   1520000   182.72138     -18094.83       156.12047    
   1521000   188.9529      -18093.49      -298.91702    
   1522000   159.61806     -18153.667      271.45205    
   1523000   171.54301     -18121.305     -90.044983    
   1524000   176.13757     -18090.309     -111.5154     
   1525000   176.88227     -18144.438      90.600757    
   1526000   176.32383     -18133.326     -288.77222    
   1527000   183.15096     -18095.308     -75.493264    
   1528000   171.4182      -18119.976     -341.4037     
   1529000   176.52247     -18143.062     -576.37188    
   1530000   176.28202     -18122.313      264.27753    
   1531000   179.45294     -18100.517      94.639385    
   1532000   183.36091     -18099.91       253.9354     
   1533000   169.08654     -18153.625     -30.971989    
   1534000   171.50624     -18148.386     -147.45584    
   1535000   175.623       -18079.626     -118.97556    
   1536000   184.63083     -18103.104     -499.42487    
   1537000   174.45357     -18122.991     -2.7484754    
   1538000   172.44139     -18124.886     -153.82028    
   1539000   183.3893      -18111.053     -152.21489    
   1540000   182.70132     -18124.233     -376.08797    
   1541000   186.09288     -18103.349     -534.42321    
   1542000   181.26522     -18094.301     -86.455371    
   1543000   182.56018     -18098.971      144.29244    
   1544000   174.69297     -18107.914      291.62267    
   1545000   176.68016     -18103.423      109.8122     
   1546000   186.49603     -18070.419      196.32102    
   1547000   179.70214     -18106.824      232.01156    
   1548000   173.16101     -18117.835     -137.6538     
   1549000   180.7545      -18127.094     -137.96564    
   1550000   177.41135     -18091.287      251.63136    
   1551000   182.14643     -18081.835     -146.08939    
   1552000   178.39783     -18099.138     -39.623907    
   1553000   168.49172     -18118.272      174.95805    
   1554000   172.48417     -18136.785     -52.773427    
   1555000   184.33421     -18091.163      320.59663    
   1556000   182.80621     -18087.586      60.189197    
   1557000   179.34394     -18100.505      312.82507    
   1558000   171.58502     -18120.934     -169.77533    
   1559000   174.8498      -18148.869     -164.85888    
   1560000   177.92384     -18141.778     -192.6916     
   1561000   178.94379     -18119.522     -212.53144    
   1562000   185.73404     -18096.086     -4.7123851    
   1563000   182.37013     -18094.425     -81.594083    
   1564000   183.33646     -18101.332     -33.677795    
   1565000   179.04522     -18138.48      -141.873      
   1566000   177.97192     -18117.377     -372.97145    
   1567000   174.8884      -18120.369     -199.57149    
   1568000   184.97116     -18060.222     -140.0338     
   1569000   182.91569     -18092.747      19.585371    
   1570000   183.97962     -18112.845     -194.1356     
   1571000   166.31915     -18164.678     -539.67819    
   1572000   175.00739     -18128.901     -135.47952    
   1573000   171.66922     -18113.983      226.28006    
   1574000   179.32566     -18068.798      261.05836    
   1575000   183.93013     -18074.673      258.60315    
   1576000   183.8545      -18118.264     -174.2913     
   1577000   169.44449     -18133.032     -9.2316434    
   1578000   179.64863     -18126.887     -232.7134     
   1579000   179.66599     -18064.285      564.25127    
   1580000   171.45487     -18128.723      165.62547    
   1581000   183.05295     -18110.205     -148.79422    
   1582000   177.88274     -18101.724      338.57539    
   1583000   171.20988     -18141.057      140.00839    
   1584000   173.61694     -18148.972     -487.51845    
   1585000   181.64124     -18102.677     -187.15018    
   1586000   191.60035     -18076.23       314.40143    
   1587000   178.3587      -18111.939     -134.46685    
   1588000   174.76008     -18142.573     -149.27012    
   1589000   174.4954      -18112.698      177.79771    
   1590000   182.88754     -18098.879     -91.355146    
   1591000   176.29264     -18119.078      148.35606    
   1592000   181.11244     -18124.251     -108.6957     
   1593000   181.14582     -18065.231      344.15322    
   1594000   183.68666     -18070.416      24.543486    
   1595000   176.93376     -18134.874     -188.85521    
   1596000   184.4324      -18132.655     -306.93825    
   1597000   185.63061     -18096.346     -289.0881     
   1598000   194.50877     -18077.868     -273.82496    
   1599000   175.90128     -18124.526     -182.7336     
   1600000   171.79876     -18122.897     -284.28744    
   1601000   177.72402     -18101.4       -125.2146     
   1602000   183.32649     -18068.843      361.53422    
   1603000   180.83253     -18085.33       253.69037    
   1604000   180.53455     -18133.894     -17.316374    
   1605000   175.87967     -18106.888      348.67439    
   1606000   180.01915     -18108.129     -106.19051    
   1607000   191.02565     -18052.677      323.1109     
   1608000   178.84174     -18149.8        37.37503     
   1609000   179.44618     -18133.648     -140.58908    
   1610000   180.34234     -18112.536     -97.632127    
   1611000   187.50009     -18085.59       31.841889    
   1612000   180.1519      -18085.878     -66.831671    
   1613000   181.65251     -18094.072      136.46426    
   1614000   166.87296     -18161.791      173.39469    
   1615000   177.62695     -18118.011      409.82456    
   1616000   189.98434     -18098.004     -236.80982    
   1617000   179.95576     -18096.889     -109.38026    
   1618000   180.8698      -18112.008     -92.447752    
   1619000   182.28613     -18123.19      -384.64285    
   1620000   183.53031     -18097.371      448.24465    
   1621000   164.95145     -18165.277     -262.81352    
   1622000   162.99572     -18159.233      13.506946    
   1623000   179.41456     -18117.522      288.3642     
   1624000   183.66879     -18105.427      153.61858    
   1625000   177.16391     -18121.672      15.192791    
   1626000   181.22988     -18117.489      13.150982    
   1627000   184.34708     -18062.09      -157.04944    
   1628000   185.33908     -18074.574      343.13262    
   1629000   171.90629     -18112.535      345.07744    
   1630000   165.90274     -18140.346      601.95396    
   1631000   178.51971     -18110.509      261.87029    
   1632000   178.05939     -18116.122      374.24368    
   1633000   169.19316     -18161.059     -64.056256    
   1634000   171.53393     -18145.939      16.907501    
   1635000   180.80486     -18097.757      295.8822     
   1636000   178.35733     -18100.389      98.100182    
   1637000   166.66834     -18171.511      149.03288    
   1638000   178.9012      -18129.901     -179.69859    
   1639000   175.71971     -18109.793      110.48814    
   1640000   182.38705     -18090.575      147.34215    
   1641000   186.36379     -18065.657      486.66222    
   1642000   170.52809     -18129.549      160.11562    
   1643000   174.85944     -18129.577      87.575035    
   1644000   175.59167     -18130.549      593.44684    
   1645000   194.44059     -18024.72      -79.893297    
   1646000   183.4858      -18122.56       212.94156    
   1647000   176.19934     -18123.556      230.96878    
   1648000   184.05638     -18098.981      72.976318    
   1649000   185.94111     -18075.605      463.14494    
   1650000   174.92962     -18087.739     -187.43379    
   1651000   178.0305      -18100.759      107.25692    
   1652000   170.21853     -18151.414      217.94444    
   1653000   172.80856     -18151.586     -57.599003    
   1654000   174.96091     -18119.036      222.35397    
   1655000   185.1064      -18094.408     -375.62994    
   1656000   179.9786      -18125.992      166.52631    
   1657000   181.10009     -18113.623      239.00828    
   1658000   197.12472     -18064.471     -342.90966    
   1659000   181.3369      -18092.099      259.03077    
   1660000   178.59055     -18100.427      101.50342    
   1661000   176.1268      -18170.085     -430.51454    
   1662000   164.13331     -18157.753     -85.722816    
   1663000   174.23135     -18116.627      348.96814    
   1664000   179.48064     -18086.584      166.51446    
   1665000   179.3946      -18056.536      415.43314    
   1666000   181.6653      -18074.099      404.31671    
   1667000   172.28515     -18124.103      143.00126    
   1668000   178.84014     -18078.158      250.56443    
   1669000   186.1457      -18099.935      240.60131    
   1670000   174.58739     -18124.713      122.13591    
   1671000   170.15402     -18147.52       453.22511    
   1672000   176.69454     -18118.461      94.856419    
   1673000   181.75792     -18117.063      190.09823    
   1674000   168.30165     -18155.283     -76.740803    
   1675000   174.27607     -18151.434      58.11194     
   1676000   173.47079     -18133.419      421.48517    
   1677000   195.36617     -18061.483     -130.18923    
   1678000   183.56623     -18114.611      328.50803    
   1679000   176.92708     -18121.455      395.09955    
   1680000   171.39687     -18144.641     -15.942255    
   1681000   175.29425     -18118.788      461.36322    
   1682000   175.47851     -18122.09       46.285952    
   1683000   177.50936     -18067.512      463.71441    
   1684000   178.28584     -18114.261      543.01192    
   1685000   168.18749     -18135.786      63.335052    
   1686000   179.54879     -18126.241      220.50316    
   1687000   185.22887     -18081.621      543.29246    
   1688000   178.75569     -18096.323      319.86175    
   1689000   180.51242     -18117.292      67.184017    
   1690000   179.2355      -18137.756     -32.777499    
   1691000   199.20728     -18031.178      188.19433    
   1692000   176.96132     -18126.57      -65.514485    
   1693000   174.08851     -18129.773      414.5802     
   1694000   178.1255      -18086.35       263.62931    
   1695000   186.24398     -18082.409     -255.18793    
   1696000   170.91872     -18127.77       311.63853    
   1697000   174.92312     -18125.529      228.35665    
   1698000   175.37688     -18145.073     -136.62881    
   1699000   168.94231     -18121.303      246.89402    
   1700000   176.34449     -18113.366      60.894649    
   1701000   167.46419     -18141.959      255.64137    
   1702000   177.0991      -18101.226      217.51635    
   1703000   191.42936     -18072.938      287.34152    
   1704000   176.8323      -18111.797      147.47282    
   1705000   170.9592      -18145.235      34.516703    
   1706000   175.38096     -18106.925     -102.34392    
   1707000   181.01463     -18080.673      393.96211    
   1708000   189.4815      -18052.506      17.65694     
   1709000   166.8424      -18118.472      296.8369     
   1710000   170.76127     -18144.496      91.368064    
   1711000   185.44301     -18104.875      527.17721    
   1712000   177.44386     -18096.399      521.74139    
   1713000   174.5016      -18130.994     -52.091903    
   1714000   167.38146     -18164.817      60.211787    
   1715000   170.33842     -18120.076      85.393848    
   1716000   179.05396     -18106.994      357.60465    
   1717000   181.7761      -18097.767      269.04508    
   1718000   183.83021     -18115.012      128.06199    
   1719000   169.65022     -18148.435     -117.30991    
   1720000   184.14765     -18108.131     -117.01446    
   1721000   182.50501     -18085.592      268.2328     
   1722000   170.95136     -18110.997      325.44105    
   1723000   174.67618     -18129.711     -179.41347    
   1724000   176.69586     -18109.432      230.52347    
   1725000   186.24933     -18042.526      138.30836    
   1726000   185.09577     -18069.548      311.39351    
   1727000   186.50258     -18091.081     -168.22944    
   1728000   174.29217     -18114.292     -39.948073    
   1729000   181.70261     -18131.765      16.79384     
   1730000   176.36709     -18155.015     -261.19963    
   1731000   174.92333     -18126.638      377.99954    
   1732000   184.16468     -18087.737     -91.460531    
   1733000   177.09622     -18090.154      43.013892    
   1734000   163.31943     -18173.964     -259.795      
   1735000   174.47514     -18121.511      209.63718    
   1736000   180.6251      -18093.609      209.45379    
   1737000   184.34417     -18065.466     -84.838505    
   1738000   189.82305     -18066.403     -44.31476     
   1739000   182.05124     -18107.277     -621.47827    
   1740000   177.96645     -18112.604      383.55604    
   1741000   176.32772     -18117.917     -115.95741    
   1742000   180.58203     -18083.44       1.90504      
   1743000   185.89065     -18082.504     -201.90412    
   1744000   172.17634     -18106.5       -26.908938    
   1745000   176.73807     -18112.627      312.15126    
   1746000   184.19726     -18070.058      546.60988    
   1747000   178.05637     -18120.805     -120.60626    
   1748000   171.19977     -18132.544      270.33146    
   1749000   183.90071     -18099.998      182.70451    
   1750000   178.14834     -18100.217      316.77504    
   1751000   174.96662     -18144.442      2.5626171    
   1752000   183.11712     -18089.841      226.46829    
   1753000   174.80806     -18120.24      -99.494418    
   1754000   174.4561      -18128.568      288.8487     
   1755000   177.29911     -18119.757      232.4879     
   1756000   188.61871     -18062.805      618.38747    
   1757000   171.04959     -18066.712      166.46487    
   1758000   181.22732     -18106.172      35.810721    
   1759000   182.65625     -18109.505      11.540352    
   1760000   172.93168     -18133.974     -176.99052    
   1761000   177.38129     -18093.393      365.56617    
   1762000   187.92441     -18077.513      145.99812    
   1763000   173.25891     -18098.368      252.31491    
   1764000   171.20422     -18112.689      56.032386    
   1765000   185.64154     -18063.978      10.492537    
   1766000   182.1775      -18068.983      262.32096    
   1767000   167.30736     -18126.449     -196.42152    
   1768000   183.13799     -18108.002      269.36966    
   1769000   186.7928      -18058.333      120.69725    
   1770000   188.96783     -18068.527      366.1624     
   1771000   186.329       -18117.968     -188.66941    
   1772000   174.20603     -18115.006      282.44321    
   1773000   179.88839     -18086.716      207.32976    
   1774000   174.45757     -18128.366     -77.771002    
   1775000   167.94411     -18118.306      311.78232    
   1776000   180.2987      -18083.76      -253.84536    
   1777000   184.37192     -18105.986      230.4059     
   1778000   187.07025     -18122.987      272.67072    
   1779000   187.52792     -18075.695      282.09771    
   1780000   179.94918     -18083.781      576.48227    
   1781000   178.13791     -18125.722      102.03029    
   1782000   171.66097     -18148.13      -45.357625    
   1783000   182.8901      -18116.372     -2.8800506    
   1784000   179.55136     -18080.778      172.49529    
   1785000   183.60162     -18080.604      115.15904    
   1786000   172.74176     -18107.525      76.084822    
   1787000   169.36596     -18115.513      437.8441     
   1788000   176.67373     -18127.409      226.20663    
   1789000   181.42809     -18088.281      178.14628    
   1790000   191.30092     -18046.163      429.50076    
   1791000   177.4888      -18117.721     -27.753656    
   1792000   176.63181     -18111.704      111.06833    
   1793000   178.80622     -18099.487      233.28734    
   1794000   189.98212     -18020.415      768.39119    
   1795000   180.92272     -18109.872      234.53921    
   1796000   173.67775     -18116.904      0.79572011   
   1797000   173.25091     -18139.451     -280.6369     
   1798000   177.54705     -18105.876      245.96122    
   1799000   180.26384     -18104.41       256.28743    
   1800000   174.0715      -18149.064     -183.05989    
   1801000   176.19732     -18133.349     -25.315348    
   1802000   174.28447     -18117.099      140.64323    
   1803000   169.35382     -18108.058      19.973363    
   1804000   182.20859     -18085.326      178.98184    
   1805000   179.15649     -18087.727      458.2003     
   1806000   185.94412     -18110.633     -184.10213    
   1807000   176.08974     -18125.637     -97.604668    
   1808000   183.2627      -18128.824     -263.92916    
   1809000   185.66514     -18035.276     -128.38766    
   1810000   179.09798     -18132.412      25.569978    
   1811000   176.53894     -18130.191     -172.52551    
   1812000   188.21704     -18061.028      304.74754    
   1813000   173.92343     -18099.696      457.40399    
   1814000   180.23868     -18123.496     -131.16034    
   1815000   175.54303     -18100.977      347.39319    
   1816000   173.79903     -18107.036      467.97781    
   1817000   181.18911     -18141.788      34.050122    
   1818000   178.36488     -18118.058      319.90192    
   1819000   189.54176     -18078.679      135.81915    
   1820000   179.59593     -18101.587     -163.34196    
   1821000   173.9871      -18135.698     -267.35577    
   1822000   176.60472     -18103.76       233.57152    
   1823000   180.01239     -18083.511      171.93635    
   1824000   177.27536     -18111.531     -65.151205    
   1825000   198.56654     -18050.321     -173.57851    
   1826000   183.48559     -18076.566     -45.60478     
   1827000   175.06146     -18110.91      -242.50595    
   1828000   176.3154      -18133.054      93.327867    
   1829000   160.29171     -18147.462      18.887121    
   1830000   173.8352      -18142.485     -143.46733    
   1831000   173.61938     -18105.421     -19.913742    
   1832000   185.16406     -18065.395      42.802103    
   1833000   176.58144     -18102.403      323.58121    
   1834000   183.83592     -18054.483      102.59137    
   1835000   177.86894     -18079.831      541.93554    
   1836000   175.6477      -18115.64      -67.082515    
   1837000   184.42299     -18114.61      -124.16154    
   1838000   180.8774      -18080.386      21.870894    
   1839000   182.22857     -18070.619      118.6053     
   1840000   175.99668     -18148.073     -409.84281    
   1841000   168.78086     -18140.398     -70.506377    
   1842000   190.51105     -18072.997      5.15117      
   1843000   179.5614      -18107.074     -143.4155     
   1844000   171.47075     -18121.073     -65.346778    
   1845000   176.25692     -18105.486     -100.14723    
   1846000   184.046       -18075.9        232.0432     
   1847000   180.73434     -18106.757     -346.69093    
   1848000   175.66914     -18127.917     -126.77323    
   1849000   163.65375     -18171.039      25.156687    
   1850000   161.71889     -18150.553      65.582988    
   1851000   175.13482     -18090.412      38.324981    
   1852000   181.87578     -18100.292     -181.81601    
   1853000   178.27618     -18112.186      405.26928    
   1854000   171.75652     -18131.78      -187.48958    
   1855000   175.86249     -18100.87       72.144985    
   1856000   185.42735     -18082.865      195.13706    
   1857000   177.93683     -18119.35       116.2732     
   1858000   179.01398     -18125.32       178.91875    
   1859000   173.21316     -18126.565     -114.41491    
   1860000   184.19231     -18084.843      424.68816    
   1861000   183.95157     -18062.632      217.82356    
   1862000   187.73408     -18082.604     -193.06435    
   1863000   174.18824     -18113.926      114.74395    
   1864000   182.61193     -18090.463     -232.3167     
   1865000   177.14803     -18091.869      239.6448     
   1866000   181.90744     -18120.227     -465.60889    
   1867000   179.27412     -18128.435     -14.900131    
   1868000   173.55026     -18130.381     -156.90521    
   1869000   180.01038     -18115.593     -415.21464    
   1870000   178.9281      -18119.29       134.93113    
   1871000   176.34486     -18142.654     -133.67804    
   1872000   173.52961     -18131.415     -51.189255    
   1873000   182.96907     -18097.45       288.85786    
   1874000   168.90071     -18148.445      71.718289    
   1875000   175.09495     -18134.622     -333.93932    
   1876000   185.79916     -18094.778     -307.38432    
   1877000   188.94818     -18095.403     -296.93708    
   1878000   175.92942     -18075.748      186.24929    
   1879000   177.90095     -18111.667      80.409692    
   1880000   178.11738     -18088.249     -111.62967    
   1881000   177.56988     -18126.855      278.80784    
   1882000   177.10307     -18135.051     -496.60805    
   1883000   180.22459     -18093.259     -197.15453    
   1884000   174.32986     -18104.776      430.54986    
   1885000   172.30222     -18143.943      32.691228    
   1886000   174.22131     -18126.144     -242.24163    
   1887000   181.84248     -18077.245     -203.72068    
   1888000   176.60719     -18087.417      368.9171     
   1889000   172.93594     -18125.32      -76.613124    
   1890000   176.66525     -18085.793     -258.8588     
   1891000   184.4113      -18076.356     -142.69975    
   1892000   178.99931     -18086.221      12.817344    
   1893000   177.63538     -18122.641     -90.151019    
   1894000   173.41192     -18141.219     -361.75049    
   1895000   174.65576     -18154.614     -608.63275    
   1896000   178.0348      -18114.648     -136.31752    
   1897000   177.64897     -18096.963      431.46549    
   1898000   178.34596     -18155.172     -466.34399    
   1899000   168.19326     -18161.047      139.78471    
   1900000   182.66734     -18113.248     -241.82296    
   1901000   178.01187     -18091.709     -45.906438    
   1902000   181.5295      -18127.879     -393.95749    
   1903000   175.52882     -18126.679     -332.01892    
   1904000   189.3165      -18046.662      717.49787    
   1905000   187.99226     -18083.233     -226.89324    
   1906000   187.57054     -18110.945     -43.69668     
   1907000   174.87508     -18159.69      -566.56084    
   1908000   191.21323     -18100.772      19.230532    
   1909000   190.85589     -18113.306     -332.04054    
   1910000   177.68109     -18137.834     -166.74507    
   1911000   181.43965     -18118.19      -315.53075    
   1912000   194.91866     -18097.426     -523.98716    
   1913000   179.95018     -18124.012     -36.593965    
   1914000   170.24328     -18139.433     -83.611526    
   1915000   177.30668     -18077.615      99.937914    
   1916000   180.86717     -18148.45      -662.98543    
   1917000   162.53204     -18146.752      71.715614    
   1918000   174.54571     -18138.267     -130.99838    
   1919000   185.21077     -18105.912     -603.47071    
   1920000   174.91881     -18127.214      217.20108    
   1921000   178.92296     -18106.735     -25.185938    
   1922000   174.50973     -18134.789     -111.42684    
   1923000   172.6477      -18110.013      109.43549    
   1924000   182.44519     -18098.011      77.432481    
   1925000   203.32725     -18055.218      79.761508    
   1926000   176.8614      -18121.573      1.0511841    
   1927000   179.08846     -18116.07      -238.09968    
   1928000   178.32278     -18129.315     -360.04081    
   1929000   179.29198     -18120.682     -212.19127    
   1930000   177.48604     -18088.14       76.937377    
   1931000   188.34243     -18059.813      3.5836692    
   1932000   179.13792     -18102.033     -94.611506    
   1933000   175.29998     -18137.185      252.25856    
   1934000   184.02445     -18091.12      -149.08389    
   1935000   179.02305     -18108.197     -116.4787     
   1936000   177.06744     -18135.155     -284.12365    
   1937000   178.56431     -18137.045     -311.34909    
   1938000   181.00885     -18131.581     -368.20302    
   1939000   184.78601     -18092.608     -77.925863    
   1940000   174.21802     -18157.527     -171.38178    
   1941000   174.05971     -18148.096      24.222074    
   1942000   187.82582     -18111.2       -206.7674     
   1943000   174.93862     -18106.303     -362.60307    
   1944000   175.04583     -18118.066     -389.73444    
   1945000   160.742       -18180.714     -182.3269     
   1946000   175.95035     -18115.601      37.320119    
   1947000   178.40051     -18085.517     -34.789122    
   1948000   174.02392     -18116.283     -189.54283    
   1949000   177.35726     -18082.121      325.24855    
   1950000   182.45105     -18100.543     -40.178081    
   1951000   172.36435     -18159.873     -106.00539    
   1952000   171.84502     -18157.324     -26.199068    
   1953000   179.41841     -18131.561      239.36437    
   1954000   177.45357     -18110.845     -80.699474    
   1955000   191.98695     -18065.844     -76.804236    
   1956000   180.59349     -18106.105     -63.464013    
   1957000   171.10266     -18127.031     -98.399611    
   1958000   178.99021     -18134.416      131.99408    
   1959000   182.72382     -18097.118     -698.98672    
   1960000   187.34693     -18087.582     -386.07358    
   1961000   176.06176     -18117.62       37.08566     
   1962000   173.41581     -18136.178     -280.25076    
   1963000   185.24683     -18117.251      27.403191    
   1964000   180.20322     -18105.963     -180.59176    
   1965000   166.11579     -18155.318     -93.415137    
   1966000   179.80761     -18076.449      128.49885    
   1967000   179.63888     -18070.007      85.939319    
   1968000   176.71498     -18110.728      405.53052    
   1969000   170.7884      -18113.662     -390.47493    
   1970000   176.92225     -18106.59       118.00723    
   1971000   170.56803     -18175.94      -12.815132    
   1972000   174.32718     -18130.969     -480.52618    
   1973000   176.33005     -18114.333      99.211957    
   1974000   186.11198     -18083.466     -605.35767    
   1975000   191.90701     -18050.475     -0.46426303   
   1976000   182.32373     -18076.199      542.11653    
   1977000   179.2506      -18101.016     -623.40439    
   1978000   169.94407     -18119.234     -86.155442    
   1979000   172.2845      -18093.568     -311.2792     
   1980000   170.86325     -18157.663     -284.68868    
   1981000   173.63436     -18100.156      93.975681    
   1982000   177.56911     -18097.037     -447.46254    
   1983000   185.63826     -18051.711     -206.00176    
   1984000   189.28961     -18076.471     -340.27734    
   1985000   180.24187     -18118.368      98.762173    
   1986000   179.9731      -18099.258     -12.170753    
   1987000   184.93022     -18064.065      124.0842     
   1988000   184.60835     -18079.935     -100.83861    
   1989000   183.65642     -18097.14      -293.77653    
   1990000   173.34859     -18110.224     -154.09339    
   1991000   158.20448     -18167.314     -118.12801    
   1992000   175.63528     -18135.407     -360.6692     
   1993000   182.43463     -18097.117      120.85497    
   1994000   174.44595     -18081.709      484.33835    
   1995000   181.2226      -18074.738     -76.492866    
   1996000   186.29144     -18101.074     -421.43264    
   1997000   171.77486     -18125.358     -64.191353    
   1998000   177.96744     -18115.307     -162.37593    
   1999000   184.86001     -18032.122      432.04617    
   2000000   178.03358     -18117.557      89.229402    
   2001000   171.45775     -18133.776     -233.10215    
   2002000   187.68867     -18086.794      8.6916638    
   2003000   186.82406     -18066.788     -66.670167    
   2004000   178.28105     -18103.893     -306.13378    
   2005000   176.30296     -18112.419     -208.70624    
   2006000   174.59022     -18072.521      301.09423    
   2007000   191.99293     -18060.862      96.774144    
   2008000   179.4015      -18083.717      136.72715    
   2009000   176.76974     -18111.504     -465.15258    
   2010000   172.58017     -18103.966      8.8820438    
   2011000   175.77138     -18102.585      59.324837    
   2012000   171.5105      -18157.476     -502.0016     
   2013000   172.13617     -18147.54      -182.73851    
   2014000   172.98457     -18132.788     -54.047881    
   2015000   187.33341     -18118.976     -388.80668    
   2016000   194.34239     -18039.377     -101.77097    
   2017000   184.32046     -18116.709     -70.303128    
   2018000   173.35702     -18145.789     -755.22029    
   2019000   186.94279     -18047.675      195.21431    
   2020000   170.66047     -18083.551      208.04746    
   2021000   188.1893      -18098.2       -62.379798    
   2022000   173.73393     -18133.066     -237.28859    
   2023000   168.38611     -18176.153     -191.44981    
   2024000   176.0659      -18147.136     -223.78311    
   2025000   173.029       -18105.949      149.12595    
   2026000   178.07442     -18100.327     -302.21433    
   2027000   187.6196      -18078.654     -68.731072    
   2028000   178.43402     -18138.777     -703.65213    
   2029000   180.15739     -18105.652     -377.32297    
   2030000   180.81486     -18084.022     -2.6769815    
   2031000   178.99685     -18064.031      427.29618    
   2032000   179.34132     -18132.443     -207.9599     
   2033000   166.67349     -18116.956      88.992466    
   2034000   181.27021     -18122.03      -483.53814    
   2035000   176.81302     -18102.282     -3.5832591    
   2036000   177.44919     -18130.082     -226.45364    
   2037000   172.85668     -18126.293      7.9285692    
   2038000   173.11593     -18123.479     -28.625455    
   2039000   187.65049     -18039.854      44.275401    
   2040000   174.8545      -18087.519      262.92399    
   2041000   182.14274     -18095.325     -53.069102    
   2042000   177.86622     -18115.782     -395.31041    
   2043000   177.23836     -18139.628     -235.81441    
   2044000   171.97912     -18134.167     -636.75764    
   2045000   168.28969     -18128.458      393.73635    
   2046000   179.87752     -18092.264     -209.87583    
   2047000   185.51834     -18102.066     -555.32068    
   2048000   171.65265     -18179.401     -550.24772    
   2049000   176.05768     -18142.671     -286.04485    
   2050000   185.48744     -18102.557     -414.02041    
   2051000   171.93742     -18122.919      6.6371357    
   2052000   178.98795     -18131.25      -330.0897     
   2053000   176.65436     -18118.821     -244.86997    
   2054000   187.17385     -18073.872     -160.17106    
   2055000   174.34367     -18129.644     -260.33418    
   2056000   177.17527     -18100.211     -65.658514    
   2057000   176.80135     -18093.012     -74.155671    
   2058000   184.17366     -18099.219     -220.74089    
   2059000   174.18587     -18148.189     -154.68114    
   2060000   187.20306     -18083.639      33.615029    
   2061000   184.24154     -18080.005     -136.25022    
   2062000   173.42116     -18149.407     -277.73023    
   2063000   177.54668     -18146.729     -540.57553    
   2064000   175.3776      -18131.108     -493.43888    
   2065000   181.43205     -18096.527      145.89732    
   2066000   180.28673     -18103.453      249.05293    
   2067000   179.53475     -18120.088     -177.89103    
   2068000   165.44071     -18173.7       -171.12397    
   2069000   182.12832     -18092.405     -54.142148    
   2070000   176.4232      -18094.86       34.56865     
   2071000   182.57451     -18070.996      11.102554    
   2072000   181.11509     -18113.041     -393.12867    
   2073000   181.82254     -18128.805     -375.10443    
   2074000   170.05207     -18124.66      -309.49666    
   2075000   188.3467      -18037.673      124.85415    
   2076000   176.45523     -18140.785     -548.34175    
   2077000   169.27124     -18146.089     -293.42507    
   2078000   179.90955     -18106.802     -154.88231    
   2079000   182.6009      -18093.788      324.21857    
   2080000   168.27562     -18159.089     -99.126688    
   2081000   178.80366     -18106.748     -46.732837    
   2082000   184.04755     -18079.646      231.53802    
   2083000   188.34041     -18098.196     -502.41609    
   2084000   175.36039     -18122.367     -485.2748     
   2085000   175.79105     -18126.37      -377.10652    
   2086000   185.26094     -18089.878      45.490173    
   2087000   182.67995     -18083.641     -249.13113    
   2088000   177.32363     -18121.75      -403.91029    
   2089000   174.26627     -18155.492     -482.3232     
   2090000   177.43025     -18143.691     -290.72843    
   2091000   180.14924     -18089.032      212.50834    
   2092000   175.89418     -18132.848     -367.89061    
   2093000   172.69753     -18108.164      79.830018    
   2094000   183.42838     -18067.707     -135.87229    
   2095000   185.11756     -18092.521      80.998816    
   2096000   181.56847     -18098.21      -752.65956    
   2097000   166.05516     -18112.031     -270.21048    
   2098000   166.0473      -18161.704      10.671664    
   2099000   175.61811     -18135.025     -528.11892    
   2100000   175.67949     -18106.386     -537.30466    
   2101000   176.18269     -18124.306     -211.76354    
   2102000   172.36113     -18162.172     -541.03612    
   2103000   174.47031     -18146.222     -268.70667    
   2104000   178.71149     -18094.067     -199.28399    
   2105000   178.05944     -18087.796     -262.11264    
   2106000   177.64803     -18128.014     -376.42542    
   2107000   198.32941     -18057.406     -489.6597     
   2108000   174.51285     -18078.018      207.68536    
   2109000   182.81294     -18124.374     -54.30795     
   2110000   161.91012     -18144.356      22.549406    
   2111000   175.20497     -18162.294     -862.04313    
   2112000   185.14871     -18110.588     -275.34448    
   2113000   169.60186     -18103.445     -143.6981     
   2114000   172.03277     -18155.646     -443.07179    
   2115000   179.14723     -18136.244     -467.2269     
   2116000   180.70369     -18107.824     -444.57396    
   2117000   189.38283     -18068.362     -254.4157     
   2118000   165.17432     -18150.774     -117.36067    
   2119000   175.20099     -18150.459     -130.59025    
   2120000   175.901       -18094.027     -239.20234    
   2121000   184.66447     -18109.523     -482.65437    
   2122000   173.92555     -18117.344     -107.31054    
   2123000   172.48388     -18109.697     -96.724746    
   2124000   182.74918     -18079.608     -49.845237    
   2125000   187.07378     -18057.614     -87.141709    
   2126000   185.46578     -18094.169      7.5238189    
   2127000   179.06601     -18123.198     -466.41067    
   2128000   181.91017     -18090.898      174.81451    
   2129000   178.09054     -18110.008     -176.2133     
   2130000   164.23639     -18177.992     -157.26694    
   2131000   182.85312     -18117.898     -214.4375     
   2132000   182.02579     -18106.706     -111.73003    
   2133000   174.65444     -18148.007     -327.39283    
   2134000   180.52944     -18129.646     -233.51855    
   2135000   180.65889     -18106.098     -26.313158    
   2136000   177.42812     -18114.198     -291.75817    
   2137000   167.06302     -18176.101     -421.10291    
   2138000   175.77395     -18163.178     -189.92987    
   2139000   172.56918     -18133.91      -226.31221    
   2140000   178.93592     -18109.865     -273.82956    
   2141000   163.79705     -18182.145     -246.10021    
   2142000   182.40156     -18136.875     -600.18952    
   2143000   179.65486     -18115.29      -198.11089    
   2144000   186.50296     -18093.172      739.03768    
   2145000   188.19815     -18079.846     -138.02211    
   2146000   177.79273     -18068.743     -456.0602     
   2147000   176.49613     -18121.456      382.61277    
   2148000   185.96503     -18128.286     -520.47945    
   2149000   180.73116     -18089.799     -276.51251    
   2150000   175.94294     -18163.524     -171.15356    
   2151000   171.98245     -18153.97      -692.88905    
   2152000   180.38527     -18099.589     -373.57224    
   2153000   176.46935     -18098.301      424.9673     
   2154000   172.24817     -18149.254     -458.44049    
   2155000   183.34356     -18113.242     -282.68499    
   2156000   180.66364     -18090.272      133.98628    
   2157000   179.47868     -18071.069     -51.261651    
   2158000   190.81203     -18053.102     -207.53406    
   2159000   176.99933     -18119.244     -216.29851    
   2160000   176.04924     -18126.32       79.035871    
   2161000   182.09384     -18117.975     -735.37719    
   2162000   185.19216     -18054.626      405.67544    
   2163000   184.65926     -18077.071     -81.509956    
   2164000   178.92288     -18139.445     -384.49649    
   2165000   169.59655     -18138.242     -184.98673    
   2166000   195.03668     -18048.168      24.852863    
   2167000   181.29763     -18139.5        197.07876    
   2168000   161.42231     -18144.764     -417.94453    
   2169000   167.21845     -18170.853     -117.05417    
   2170000   173.34817     -18168.292      11.289249    
   2171000   183.41503     -18114.728     -37.940862    
   2172000   182.06972     -18110.26      -118.14815    
   2173000   182.84366     -18125.979      6.9338478    
   2174000   181.38162     -18101.084      240.75611    
   2175000   183.18328     -18110.333     -86.433503    
   2176000   180.8186      -18129.805      313.23123    
   2177000   176.61334     -18122.024     -205.51139    
   2178000   181.32591     -18092.918      214.84197    
   2179000   180.89804     -18077.915      404.64238    
   2180000   180.17353     -18105.816     -204.91333    
   2181000   180.9434      -18121.319     -281.56271    
   2182000   177.9185      -18097.356     -224.46766    
   2183000   179.28889     -18132.141      12.782029    
   2184000   178.26206     -18168.648     -203.39193    
   2185000   186.70725     -18124.312     -695.14201    
   2186000   182.16456     -18147.182      35.451283    
   2187000   169.92371     -18171.059     -705.67994    
   2188000   177.90856     -18124.429     -403.45311    
   2189000   184.94228     -18099.342     -9.8242041    
   2190000   175.52605     -18179.903     -349.89037    
   2191000   182.86707     -18133.881     -524.64934    
   2192000   177.28238     -18110.73       205.56921    
   2193000   173.65735     -18170.154     -789.09586    
   2194000   185.19098     -18146.58      -340.38021    
   2195000   182.98556     -18132.466     -601.90529    
   2196000   172.61144     -18125.912     -28.070771    
   2197000   188.418       -18131.4       -216.40252    
   2198000   187.3374      -18087.61      -136.65929    
   2199000   183.57203     -18097.678     -248.91394    
   2200000   170.57057     -18136.436     -162.05907    
   2201000   185.09677     -18097.668     -83.485265    
   2202000   179.22246     -18122.875     -175.73716    
   2203000   175.12154     -18114.916     -69.290045    
   2204000   174.11202     -18136.47      -244.13848    
   2205000   166.62912     -18144.758     -220.49651    
   2206000   185.49262     -18100.217     -591.15606    
   2207000   182.77756     -18120.021     -549.93829    
   2208000   167.71115     -18158.948     -440.92627    
   2209000   173.87372     -18140.074     -540.66999    
   2210000   180.59372     -18100.932     -197.86797    
   2211000   172.30539     -18129.06      -199.65164    
   2212000   172.96548     -18160.12      -629.99388    
   2213000   185.75872     -18085.272     -53.907328    
   2214000   184.0826      -18104.107     -351.06084    
   2215000   171.61133     -18128.738     -339.66277    
   2216000   173.28618     -18152.214     -219.87059    
   2217000   173.44363     -18113.274     -50.589251    
   2218000   178.37449     -18077.879     -308.90772    
   2219000   171.62354     -18105.057     -320.58185    
   2220000   177.5546      -18111.661     -573.71022    
   2221000   168.04757     -18154.21      -596.1093     
   2222000   171.85471     -18151.878     -330.49558    
   2223000   178.58252     -18103.084      115.40934    
   2224000   186.74135     -18082.379     -70.105331    
   2225000   175.74706     -18127.616     -146.91121    
   2226000   175.82822     -18121.077     -578.3371     
   2227000   184.62511     -18068.036     -319.58398    
   2228000   177.65949     -18101.293     -489.97643    
   2229000   180.25184     -18131.902     -311.58725    
   2230000   172.38641     -18150.986     -305.97656    
   2231000   172.27904     -18156.187     -350.7781     
   2232000   179.27072     -18112.593     -407.21872    
   2233000   180.83368     -18107.815     -494.02886    
   2234000   182.01919     -18112.721     -444.83196    
   2235000   164.24065     -18161.886     -434.98702    
   2236000   169.47435     -18144.542     -250.04653    
   2237000   175.94531     -18116.984     -461.43945    
   2238000   183.30222     -18101.198      50.403717    
   2239000   172.72459     -18136.909     -204.76437    
   2240000   196.46496     -18119.061     -479.13843    
   2241000   176.05755     -18073.426      177.37281    
   2242000   188.39305     -18073.72      -320.27115    
   2243000   168.81741     -18135.082     -30.714544    
   2244000   181.45117     -18101.775     -574.16455    
   2245000   174.59677     -18115.211     -33.690612    
   2246000   167.36477     -18155.268     -466.58428    
   2247000   186.24406     -18151.638     -499.65226    
   2248000   182.24509     -18098.872     -625.67191    
   2249000   172.86342     -18139.437     -546.14295    
   2250000   176.56853     -18091.951     -55.132919    
   2251000   179.05268     -18119.448     -469.89652    
   2252000   175.63844     -18139.167     -353.28753    
   2253000   183.62487     -18133.126     -384.86162    
   2254000   174.544       -18117.603      60.436724    
   2255000   183.3845      -18083.013     -405.03272    
   2256000   186.69306     -18083.947     -256.23014    
   2257000   184.0359      -18087.723     -278.08443    
   2258000   180.61733     -18133.539     -417.01128    
   2259000   176.62863     -18111.582     -199.58042    
   2260000   175.51899     -18090.92       46.853349    
   2261000   178.79478     -18128.846     -275.46395    
   2262000   189.49998     -18094.545     -675.95688    
   2263000   187.48269     -18066.483     -407.85261    
   2264000   179.61127     -18080.239     -66.07351     
   2265000   171.9376      -18114.754     -202.60547    
   2266000   181.90188     -18084.07       108.45399    
   2267000   176.60684     -18104.476     -678.11658    
   2268000   170.36182     -18150.68      -225.46712    
   2269000   174.31146     -18130.575     -594.07183    
   2270000   175.69665     -18100.593     -101.68369    
   2271000   177.87919     -18113.473     -426.96493    
   2272000   173.27731     -18161.455     -364.83814    
   2273000   178.46988     -18133.781     -500.36307    
   2274000   186.66672     -18083.31      -166.80462    
   2275000   179.54274     -18095.197     -623.57127    
   2276000   176.44192     -18122.518     -592.38895    
   2277000   182.23856     -18119.928     -537.16897    
   2278000   173.77233     -18142.77      -165.47262    
   2279000   173.32425     -18112.93      -240.44068    
   2280000   191.1317      -18076.605     -586.20058    
   2281000   176.10493     -18116.637     -58.712634    
   2282000   169.77647     -18139.953     -212.36083    
   2283000   170.48467     -18144.501     -276.96966    
   2284000   179.45458     -18112.8       -485.5943     
   2285000   182.38987     -18081.859     -218.07725    
   2286000   192.43452     -18064.805     -81.192226    
   2287000   179.43896     -18113.866     -379.19498    
   2288000   178.99539     -18122.41      -260.10397    
   2289000   184.60628     -18125.831     -646.48292    
   2290000   187.16374     -18074.598     -395.56158    
   2291000   183.17522     -18079.934     -40.298822    
   2292000   172.2849      -18152.75      -649.0798     
   2293000   175.55121     -18096.786     -274.19551    
   2294000   181.16341     -18109.729     -744.01799    
   2295000   172.58778     -18177.685     -428.35059    
   2296000   176.23963     -18126.668     -319.13952    
   2297000   180.55049     -18108.092     -542.55552    
   2298000   177.92279     -18130.831     -470.12733    
   2299000   177.91764     -18126.848     -583.07706    
   2300000   185.17288     -18101.167     -603.81621    
   2301000   182.52615     -18095         -452.23322    
   2302000   180.96019     -18089.779     -411.03207    
   2303000   169.19472     -18134.338     -396.28686    
   2304000   178.57335     -18137.961     -478.17892    
   2305000   188.75104     -18112.82      -663.3997     
   2306000   166.33337     -18174.788     -667.97974    
   2307000   175.10315     -18127.219     -92.959933    
   2308000   173.12723     -18105.366     -121.64903    
   2309000   180.19464     -18085.153     -256.31031    
   2310000   169.16844     -18129.676     -31.056968    
   2311000   172.98699     -18151.11      -454.51517    
   2312000   176.90621     -18125.864      261.33704    
   2313000   182.28737     -18078.347     -145.25819    
   2314000   181.97379     -18125.528     -261.29935    
   2315000   176.47409     -18158.535     -207.2001     
   2316000   174.23032     -18169.721     -684.91273    
   2317000   179.24048     -18118.955     -437.23075    
   2318000   183.27345     -18084.692      98.800181    
   2319000   173.64683     -18129.282     -245.06082    
   2320000   163.20287     -18149.169     -299.58966    
   2321000   173.0362      -18128.438     -109.67176    
   2322000   186.40045     -18081.369     -288.59332    
   2323000   175.85336     -18117.927     -179.08564    
   2324000   178.9379      -18111.95      -313.85639    
   2325000   179.52573     -18093.214     -73.60984     
   2326000   189.21393     -18073.371     -37.400709    
   2327000   176.80258     -18113.49      -338.48611    
   2328000   170.19395     -18130.939     -495.17945    
   2329000   183.57701     -18067.036     -140.43503    
   2330000   183.72302     -18078.243      235.08066    
   2331000   185.09274     -18097.128     -196.71504    
   2332000   186.54469     -18115.397     -445.53262    
   2333000   179.3923      -18125.105     -566.41114    
   2334000   175.49804     -18112.908     -151.72597    
   2335000   188.27292     -18099.743     -765.96337    
   2336000   183.25489     -18108.213     -336.11271    
   2337000   177.48345     -18111.604     -2.5343528    
   2338000   175.49063     -18166.676     -952.90333    
   2339000   173.19807     -18136.805     -45.124465    
   2340000   182.61535     -18112.646     -280.42488    
   2341000   174.47592     -18101.168     -184.31711    
   2342000   180.00875     -18108.418     -64.07417     
   2343000   175.89682     -18148.794     -384.73728    
   2344000   175.03913     -18147.867     -423.95379    
   2345000   179.64866     -18124.117     -557.2874     
   2346000   181.51426     -18123.435     -260.88707    
   2347000   182.17816     -18112.217     -528.30832    
   2348000   197.19983     -18034.092     -72.012655    
   2349000   175.82597     -18143.257     -178.7086     
   2350000   187.20099     -18128.693     -474.75758    
   2351000   178.12922     -18103.128     -31.821823    
   2352000   194.7477      -18065.458     -143.33569    
   2353000   179.50471     -18093.752      50.022633    
   2354000   175.58678     -18124.255     -395.14679    
   2355000   172.46828     -18139.945     -392.39487    
   2356000   173.97444     -18118.035     -326.55939    
   2357000   181.32976     -18085.147     -158.12308    
   2358000   187.12905     -18102.309     -383.11656    
   2359000   180.64573     -18131.585     -109.22853    
   2360000   181.74592     -18108.647     -363.4081     
   2361000   182.89175     -18070.548      462.16366    
   2362000   173.89311     -18087.007     -87.698237    
   2363000   172.16924     -18130.631     -482.82795    
   2364000   181.97412     -18096.057     -9.8814619    
   2365000   180.39065     -18079.242      83.265732    
   2366000   186.35287     -18074.094     -476.68125    
   2367000   182.6389      -18087.14      -419.45772    
   2368000   178.89786     -18102.027     -239.88689    
   2369000   174.9933      -18115.15      -220.63704    
   2370000   178.00053     -18108.306     -499.28556    
   2371000   183.86184     -18070.917      116.85967    
   2372000   178.08149     -18110.863     -210.8376     
   2373000   177.22774     -18135.353     -374.92096    
   2374000   172.63253     -18140.417     -175.54913    
   2375000   181.56128     -18067.555     -212.24842    
   2376000   177.23814     -18104.044     -170.8916     
   2377000   175.46762     -18128.027     -367.88202    
   2378000   178.46155     -18156.529      42.283786    
   2379000   178.24038     -18109.52      -284.96469    
   2380000   177.39199     -18148.02      -633.37188    
   2381000   175.07361     -18167.089     -274.09272    
   2382000   181.88562     -18100.483     -710.17686    
   2383000   166.73446     -18117.282      462.60669    
   2384000   164.35006     -18167.342     -296.65496    
   2385000   167.60982     -18152.456     -313.01183    
   2386000   179.74646     -18149.884     -655.93164    
   2387000   174.92535     -18130.022     -112.39914    
   2388000   189.00831     -18093.671     -421.4929     
   2389000   187.8691      -18084.31      -488.92868    
   2390000   174.92137     -18117.988     -239.55841    
   2391000   177.73801     -18096.118      291.11779    
   2392000   176.02985     -18097.893     -161.81761    
   2393000   179.18612     -18106.522     -751.17277    
   2394000   181.88172     -18124.788     -481.99105    
   2395000   177.00532     -18130.48      -498.72362    
   2396000   178.10889     -18114.657     -381.04382    
   2397000   184.37457     -18097.268      117.59977    
   2398000   187.97453     -18079.731     -74.32416     
   2399000   180.10196     -18071.198     -256.53591    
   2400000   183.39133     -18076.49      -162.29976    
   2401000   173.87148     -18121.58      -81.141047    
   2402000   179.01062     -18099.604     -466.53224    
   2403000   176.76184     -18108.825     -447.88039    
   2404000   176.90611     -18153.095     -923.93363    
   2405000   172.30897     -18162.244     -783.67043    
   2406000   172.52523     -18114.189      102.75146    
   2407000   178.28828     -18089.264     -0.84224862   
   2408000   183.08429     -18103.935     -108.82592    
   2409000   169.29011     -18129.514      28.628363    
   2410000   176.3784      -18131.743     -459.03612    
   2411000   178.1424      -18106.215     -425.2654     
   2412000   173.40634     -18130.033     -534.76599    
   2413000   178.97083     -18106.987     -162.37016    
   2414000   181.39825     -18064.796     -213.87032    
   2415000   175.4614      -18150.303     -225.24829    
   2416000   178.46252     -18136.392     -240.24831    
   2417000   197.14182     -18039.902     -19.440333    
   2418000   174.72101     -18103.508     -130.11286    
   2419000   177.71683     -18117.405     -64.504303    
   2420000   177.17913     -18106.958      109.37337    
   2421000   177.32888     -18130.089     -246.32332    
   2422000   174.33129     -18180.325     -607.71741    
   2423000   173.28171     -18122.021     -466.53631    
   2424000   170.65248     -18119.464      45.451415    
   2425000   186.46163     -18095.31      -295.98783    
   2426000   192.33169     -18065.597     -258.54881    
   2427000   168.37744     -18141.472      151.23575    
   2428000   172.21277     -18140.046     -0.86971897   
   2429000   180.37706     -18078.928     -86.751302    
   2430000   184.93222     -18084.834     -28.318372    
   2431000   178.116       -18112.22      -177.27516    
   2432000   184.5843      -18128.516     -656.13057    
   2433000   177.94135     -18134.073     -289.00403    
   2434000   181.48793     -18116.663     -632.83518    
   2435000   177.24335     -18093.919     -503.30995    
   2436000   180.84023     -18094.157     -503.29694    
   2437000   173.45801     -18166.265     -384.09259    
   2438000   177.0957      -18096.006     -330.68657    
   2439000   182.14916     -18107.713     -584.89395    
   2440000   170.67352     -18156.064     -670.976      
   2441000   180.84144     -18132.844     -524.86958    
   2442000   169.42303     -18118.339     -150.53041    
   2443000   181.5257      -18111.853     -361.5887     
   2444000   169.43494     -18139.941     -107.76485    
   2445000   178.35564     -18141.343     -404.25549    
   2446000   178.45324     -18108.592     -226.39325    
   2447000   174.27978     -18121.61       16.352914    
   2448000   170.60038     -18162.706     -674.24901    
   2449000   176.5808      -18131.723     -594.47921    
   2450000   180.96487     -18104.814     -430.31857    
   2451000   188.42055     -18082.05      -495.18861    
   2452000   175.94282     -18150.443     -384.33201    
   2453000   170.85192     -18154.136     -588.36459    
   2454000   180.75053     -18103.953      144.76088    
   2455000   172.65304     -18106.838     -11.613989    
   2456000   176.58069     -18118.972     -294.66048    
   2457000   172.89071     -18142.79      -115.75597    
   2458000   183.64156     -18103.61      -655.4478     
   2459000   169.15264     -18167.134     -284.16799    
   2460000   170.08128     -18165.611     -363.87193    
   2461000   179.33493     -18142.399     -161.09162    
   2462000   175.19109     -18125.07      -416.85791    
   2463000   178.65134     -18098.575     -365.07288    
   2464000   191.64232     -18056.403      5.8157713    
   2465000   172.36464     -18136.927     -85.892677    
   2466000   183.91996     -18102.51      -532.04459    
   2467000   175.79793     -18100.269     -496.526      
   2468000   184.14311     -18131.886     -388.91594    
   2469000   178.01477     -18125.685     -379.91296    
   2470000   180.8042      -18087.001     -297.66439    
   2471000   184.02576     -18121.492     -427.42718    
   2472000   168.91358     -18170.102     -575.96303    
   2473000   169.86029     -18164.785     -629.31563    
   2474000   179.16513     -18131.459     -171.73895    
   2475000   183.85744     -18101.066     -665.95223    
   2476000   183.33658     -18082.854     -259.57096    
   2477000   182.42789     -18079.81      -388.48422    
   2478000   174.79106     -18143.663     -503.58389    
   2479000   181.42611     -18122.194      152.84439    
   2480000   174.6469      -18107.275     -665.84339    
   2481000   181.2077      -18135.427     -212.01948    
   2482000   170.45147     -18157.07      -511.74934    
   2483000   178.47805     -18141.625     -205.91885    
   2484000   176.87728     -18132.813     -568.09544    
   2485000   187.86158     -18079.574     -225.52263    
   2486000   177.01148     -18111.302     -80.94503     
   2487000   177.6976      -18143.433     -212.15211    
   2488000   174.37952     -18071.563     -363.30831    
   2489000   186.85115     -18115.186     -435.99269    
   2490000   183.44391     -18143.727     -582.75422    
   2491000   178.00358     -18114.467     -649.69298    
   2492000   178.10083     -18083.996     -4.5536492    
   2493000   178.97613     -18113.748     -47.676723    
   2494000   167.93623     -18145.417     -494.87509    
   2495000   171.25202     -18162.645     -363.42958    
   2496000   176.91001     -18136.251     -572.94272    
   2497000   181.90726     -18108.154     -399.07746    
   2498000   174.18109     -18130.46      -269.31429    
   2499000   173.26867     -18104.656      195.41626    
   2500000   183.74996     -18065.969      167.02037    
   2501000   183.1325      -18090.202     -285.87226    
   2502000   181.90977     -18117.893     -1111.3098    
   2503000   169.96572     -18150.774     -380.4926     
   2504000   172.85246     -18183.329     -1037.0233    
   2505000   176.01909     -18155.984     -467.9405     
   2506000   178.22596     -18127.046     -193.97969    
   2507000   173.85548     -18112.102     -45.547681    
   2508000   194.63311     -18090.409     -144.43068    
   2509000   183.40398     -18057.213      156.42519    
   2510000   181.64296     -18132.152     -779.48373    
   2511000   173.1011      -18134.328     -365.55145    
   2512000   183.63653     -18124.952      49.224596    
   2513000   184.45649     -18065.455      18.897512    
   2514000   182.72782     -18115.664     -418.64164    
   2515000   179.19007     -18133.964     -453.22243    
   2516000   179.52429     -18120.534     -751.95123    
   2517000   177.07885     -18077.003     -195.74567    
   2518000   182.19792     -18086.908     -418.05921    
   2519000   178.04347     -18125.729     -113.47365    
   2520000   168.47668     -18155.79      -357.83474    
   2521000   172.74145     -18149.486     -139.07802    
   2522000   173.60986     -18133.256     -273.13898    
   2523000   173.84827     -18129.067     -287.89338    
   2524000   172.61517     -18119.341     -248.84568    
   2525000   178.69528     -18103.301     -475.64274    
   2526000   170.748       -18194.278     -579.95556    
   2527000   180.97046     -18103.948     -248.40154    
   2528000   180.21422     -18097.79      -80.491994    
   2529000   166.03638     -18156.806      0.024118457  
   2530000   171.33751     -18161.655     -442.60999    
   2531000   182.40281     -18097.028     -311.84631    
   2532000   174.34397     -18106.613     -82.365592    
   2533000   171.71076     -18169.763     -163.05153    
   2534000   172.4472      -18151.106     -325.99016    
   2535000   176.50116     -18119.174      62.251063    
   2536000   177.03207     -18114.062     -256.63314    
   2537000   190.18614     -18071.164      182.86891    
   2538000   174.76769     -18109.054     -76.572241    
   2539000   172.78128     -18149.737     -53.458411    
   2540000   181.25222     -18084.034     -308.50836    
   2541000   182.17209     -18098.443     -76.58861     
   2542000   177.02547     -18131.42      -111.3245     
   2543000   171.98867     -18141.619      59.791635    
   2544000   171.2401      -18142.131     -456.64384    
   2545000   179.02471     -18104.783     -399.4461     
   2546000   187.23102     -18099.96      -461.15991    
   2547000   176.3403      -18145.682     -666.17687    
   2548000   180.72226     -18162.913     -500.88631    
   2549000   179.66684     -18147.176     -93.663447    
   2550000   181.79394     -18092.159     -111.96581    
   2551000   184.49956     -18083.45      -302.47899    
   2552000   180.24127     -18099.576     -78.552369    
   2553000   175.66923     -18130.168     -485.63113    
   2554000   180.94723     -18104.427     -46.129206    
   2555000   182.33107     -18077.363      148.43444    
   2556000   183.94979     -18095.897     -46.673516    
   2557000   183.27073     -18105.144     -106.2241     
   2558000   174.64919     -18124.82      -221.06835    
   2559000   172.62601     -18159.967     -225.1383     
   2560000   170.46328     -18136.771     -439.13066    
   2561000   176.23649     -18140.416     -407.44788    
   2562000   180.31557     -18118.882     -280.71103    
   2563000   178.33734     -18118.493     -679.91256    
   2564000   184.08442     -18101.199     -193.14715    
   2565000   184.90759     -18068.711     -107.28258    
   2566000   181.65919     -18095.112     -65.722112    
   2567000   183.60642     -18113.315     -432.23664    
   2568000   175.35739     -18120.471     -290.97873    
   2569000   183.94604     -18088.435     -561.18739    
   2570000   186.61322     -18095.087     -636.70788    
   2571000   188.59062     -18109.728     -314.115      
   2572000   172.89868     -18150.962     -260.90195    
   2573000   178.7361      -18149.7       -525.11193    
   2574000   173.84743     -18132.252     -448.60636    
   2575000   178.74846     -18104.117     -4.6239451    
   2576000   169.47177     -18110.303     -411.19808    
   2577000   174.88274     -18147.806     -285.96323    
   2578000   167.92525     -18134.299     -22.79674     
   2579000   180.40841     -18105.42      -529.44531    
   2580000   176.92137     -18122.545     -141.44616    
   2581000   177.24071     -18126.997     -660.0562     
   2582000   179.88923     -18097.942     -750.33623    
   2583000   184.63597     -18062.214      58.144106    
   2584000   176.36394     -18121.917     -709.87286    
   2585000   175.70775     -18147.97      -613.06152    
   2586000   169.32686     -18126.277      116.56888    
   2587000   185.91713     -18096.838     -200.30673    
   2588000   178.39824     -18119.029     -382.54577    
   2589000   166.9442      -18151.3       -334.17357    
   2590000   177.56268     -18123.873     -456.60893    
   2591000   185.23558     -18118.285     -874.71532    
   2592000   186.62871     -18119.116     -766.46465    
   2593000   176.72052     -18134.845     -187.30775    
   2594000   172.68043     -18140.08      -394.91527    
   2595000   191.61801     -18088.772     -269.28004    
   2596000   186.39399     -18106.185     -722.78325    
   2597000   185.15574     -18119.689     -480.53138    
   2598000   175.93421     -18139.367     -535.52176    
   2599000   171.63957     -18169.226     -574.03133    
   2600000   172.50698     -18115.806     -531.25882    
   2601000   186.49344     -18104.217     -267.56966    
   2602000   185.20664     -18114.954     -504.27885    
   2603000   174.58375     -18160.707     -319.57132    
   2604000   172.09163     -18147.273     -596.5684     
   2605000   174.99082     -18114.477     -67.904791    
   2606000   172.19631     -18107.697     -448.19453    
   2607000   172.34383     -18123.847     -348.3118     
   2608000   187.04239     -18094.002     -495.02093    
   2609000   181.97872     -18081.048     -205.27143    
   2610000   186.89758     -18092.916     -632.23249    
   2611000   176.78837     -18133.731     -395.74198    
   2612000   171.70846     -18142.542     -193.9954     
   2613000   188.77714     -18051.144     -213.1903     
   2614000   173.49969     -18115.591     -155.78272    
   2615000   176.17827     -18147.809     -266.08521    
   2616000   179.16292     -18119.755     -195.10852    
   2617000   179.61612     -18102.004     -322.56903    
   2618000   194.26171     -18052.855     -386.70426    
   2619000   189.36544     -18091.994     -221.47192    
   2620000   182.3826      -18101.823     -423.08702    
   2621000   169.53134     -18159.681     -562.02492    
   2622000   162.91837     -18151.597     -518.21061    
   2623000   177.98865     -18092.523     -439.33463    
   2624000   188.23555     -18112.477     -494.83866    
   2625000   174.02853     -18191.448     -563.34339    
   2626000   177.67295     -18097.312     -180.24238    
   2627000   181.00642     -18102.036     -364.94042    
   2628000   171.70563     -18174.523     -583.417      
   2629000   165.63885     -18160.665     -62.66278     
   2630000   169.84024     -18137.754      20.398799    
   2631000   178.96967     -18116.824     -400.60645    
   2632000   176.71436     -18095.103     -253.14209    
   2633000   197.41956     -18096.997     -413.06887    
   2634000   176.03849     -18146.222     -405.89754    
   2635000   179.86858     -18109.162     -96.469234    
   2636000   188.50862     -18110.095     -458.044      
   2637000   170.4657      -18169.103     -210.38951    
   2638000   171.8748      -18145.908     -165.32885    
   2639000   174.57167     -18122.017     -69.476181    
   2640000   183.70245     -18103.86      -128.43383    
   2641000   164.44453     -18164.699     -348.22956    
   2642000   175.64567     -18160.032     -587.82485    
   2643000   169.60221     -18140.782     -712.04387    
   2644000   182.82162     -18097.327     -511.86387    
   2645000   187.85576     -18087.16      -323.34876    
   2646000   174.15536     -18129.289     -90.090875    
   2647000   176.08847     -18142.163     -569.63322    
   2648000   179.62559     -18062.822      187.97245    
   2649000   184.36541     -18090.092     -250.52024    
   2650000   180.5982      -18129.525     -849.06633    
   2651000   179.22828     -18105.541      88.283267    
   2652000   184.73012     -18096.253     -139.41156    
   2653000   173.92929     -18132.476      147.70142    
   2654000   168.83803     -18140.424     -255.57231    
   2655000   180.70661     -18071.471      99.857       
   2656000   186.79768     -18101.475      98.468362    
   2657000   174.76871     -18126.329     -685.43385    
   2658000   180.75336     -18113.283     -527.17886    
   2659000   189.18724     -18086.415     -247.44859    
   2660000   169.18783     -18142.227     -193.37789    
   2661000   172.79276     -18142.242     -528.03642    
   2662000   171.4435      -18121.626     -205.32454    
   2663000   185.02924     -18108.663     -748.48735    
   2664000   179.91216     -18101.513     -237.79399    
   2665000   179.42429     -18131.507     -412.13841    
   2666000   172.04186     -18164.354     -455.60811    
   2667000   174.93926     -18136.199     -139.40612    
   2668000   178.79363     -18115.955     -533.84044    
   2669000   183.5121      -18094.645     -435.94862    
   2670000   185.56377     -18064.587     -278.23802    
   2671000   176.67        -18127.035     -315.33042    
   2672000   184.96334     -18103.321     -248.78684    
   2673000   189.28796     -18076.486     -496.17397    
   2674000   188.81264     -18056.974     -320.44798    
   2675000   175.92406     -18129.129     -183.51789    
   2676000   172.13859     -18133.748      540.35522    
   2677000   166.55859     -18128.881     -314.69297    
   2678000   180.51311     -18102.046      32.814603    
   2679000   181.9819      -18098.882     -504.25312    
   2680000   188.11298     -18073.869      185.26655    
   2681000   182.72803     -18094.77       13.839234    
   2682000   186.72819     -18105.449     -110.49968    
   2683000   166.04962     -18173.631     -629.87953    
   2684000   177.32672     -18130.512     -384.39976    
   2685000   178.40766     -18115.024     -424.34447    
   2686000   175.36504     -18102.925     -201.44889    
   2687000   174.02426     -18141.816     -456.97329    
   2688000   167.28532     -18173.324     -239.38771    
   2689000   175.66197     -18131.289     -160.0577     
   2690000   193.52043     -18108.684     -474.41511    
   2691000   171.72845     -18115.48      -165.0376     
   2692000   174.87852     -18162.87      -455.99184    
   2693000   185.62318     -18123.122     -181.08576    
   2694000   175.84029     -18089.497      248.92026    
   2695000   171.00283     -18121.739     -180.10305    
   2696000   169.75933     -18145.571     -324.49329    
   2697000   175.02643     -18124.36      -349.49412    
   2698000   186.13195     -18106.963     -382.23428    
   2699000   193.98438     -18059.536      195.6801     
   2700000   181.31679     -18105.777      245.97142    
   2701000   177.41546     -18116.502     -27.123314    
   2702000   182.86715     -18106.744      20.817292    
   2703000   187.31187     -18083.412     -324.88669    
   2704000   176.23638     -18104.041     -228.15846    
   2705000   178.11215     -18124.376     -196.95134    
   2706000   171.19154     -18139.382      6.0087797    
   2707000   180.85102     -18095.007     -331.09502    
   2708000   179.62251     -18108.918     -91.630012    
   2709000   170.89247     -18126.361     -347.86207    
   2710000   171.56011     -18128.134      109.81282    
   2711000   179.50945     -18122.85      -33.356061    
   2712000   181.73651     -18106.26       33.279606    
   2713000   183.8672      -18095.505     -391.89578    
   2714000   191.11846     -18098.15      -319.9536     
   2715000   178.63751     -18100.009      72.528533    
   2716000   176.31424     -18126.46      -409.06884    
   2717000   180.65546     -18106.606     -165.68808    
   2718000   187.53847     -18093.477     -313.80946    
   2719000   181.35891     -18114.493     -250.83168    
   2720000   168.68714     -18114.777     -117.6442     
   2721000   171.86841     -18175.207     -72.614471    
   2722000   173.68839     -18154.531     -126.03509    
   2723000   174.38568     -18129.109      76.296422    
   2724000   177.32933     -18107.331     -39.890268    
   2725000   184.76244     -18075.227      18.922539    
   2726000   176.75756     -18096.451      5.0353524    
   2727000   176.70832     -18139.764     -455.44573    
   2728000   180.34096     -18127.274     -321.56937    
   2729000   185.53269     -18077.079     -35.260526    
   2730000   179.11387     -18096.435     -364.87417    
   2731000   180.62096     -18099.528      77.686579    
   2732000   170.48553     -18135.876     -340.37229    
   2733000   174.99046     -18134.29      -216.0155     
   2734000   181.7763      -18107.846     -504.74376    
   2735000   171.30593     -18135.497     -205.17508    
   2736000   169.57608     -18142.08      -16.104621    
   2737000   183.31141     -18091.813     -598.71803    
   2738000   190.71749     -18079.46      -208.06088    
   2739000   182.5701      -18112.646     -235.69791    
   2740000   177.86907     -18136.697     -272.63707    
   2741000   173.97979     -18133.503     -98.014143    
   2742000   179.88904     -18104.373     -325.44894    
   2743000   181.29849     -18097.776     -164.76933    
   2744000   177.26331     -18158.945     -491.72317    
   2745000   173.27967     -18167.141     -799.07439    
   2746000   176.90108     -18107.295     -463.06291    
   2747000   176.86225     -18106.003     -302.35683    
   2748000   180.12898     -18112.618     -398.34542    
   2749000   175.84095     -18140.106     -366.39393    
   2750000   177.85114     -18132.484     -514.08014    
   2751000   180.91547     -18105.961     -64.548205    
   2752000   175.45957     -18099.862      296.44534    
   2753000   181.24541     -18099.768     -383.68292    
   2754000   179.44944     -18113.934     -293.47547    
   2755000   170.02318     -18191.182     -754.19966    
   2756000   178.78887     -18160.204     -646.11102    
   2757000   185.82684     -18136.956     -538.74793    
   2758000   183.02286     -18115.934     -371.93153    
   2759000   191.83315     -18078.845     -142.60658    
   2760000   179.62672     -18114.268     -792.88816    
   2761000   181.36204     -18131.659     -415.74257    
   2762000   179.14907     -18116.192     -141.92234    
   2763000   193.56598     -18086.748     -672.87347    
   2764000   178.79128     -18144.09      -715.5582     
   2765000   173.24696     -18114.681     -279.47816    
   2766000   174.0117      -18110.953     -225.83637    
   2767000   173.28821     -18133.384     -283.31138    
   2768000   172.02495     -18127.294     -485.83708    
   2769000   184.04588     -18093.178     -526.16384    
   2770000   183.39539     -18070.157     -121.82512    
   2771000   185.32021     -18116.49      -321.88082    
   2772000   167.93561     -18139.316     -547.56179    
   2773000   179.5706      -18101.83       1.0572957    
   2774000   179.98691     -18089.485     -333.94781    
   2775000   188.28855     -18097.828     -384.4235     
   2776000   178.35815     -18152.916     -453.83438    
   2777000   171.68017     -18140.723     -518.97213    
   2778000   177.43742     -18120.173     -963.8741     
   2779000   175.26932     -18100.917     -316.98214    
   2780000   183.05664     -18090.194     -241.58362    
   2781000   180.7383      -18121.545     -615.08537    
   2782000   180.50299     -18144.149     -522.04765    
   2783000   184.22835     -18123.116     -444.4688     
   2784000   184.75543     -18097.645     -238.20774    
   2785000   168.22982     -18149.866     -507.79687    
   2786000   181.33152     -18128.942     -295.53835    
   2787000   182.6344      -18112.942     -526.8765     
   2788000   186.75368     -18071.1       -364.18524    
   2789000   189.28343     -18089.236     -456.54193    
   2790000   194.48811     -18101.148     -1099.4917    
   2791000   182.78721     -18133.908     -528.51618    
   2792000   173.75983     -18165.505     -404.39985    
   2793000   176.98687     -18127.082     -666.76762    
   2794000   177.32278     -18112.101     -617.42551    
   2795000   185.43297     -18100.376     -61.541188    
   2796000   177.88568     -18111.223     -125.64314    
   2797000   180.54815     -18136.121     -696.51917    
   2798000   183.65853     -18087.336     -33.002977    
   2799000   184.67906     -18109.312     -18.473899    
   2800000   174.04376     -18129.652      113.24333    
   2801000   173.88436     -18116.093     -617.29453    
   2802000   177.93407     -18120.134     -389.14775    
   2803000   177.33832     -18157.384     -490.78022    
   2804000   175.32048     -18151.798     -251.39375    
   2805000   177.71076     -18116.366     -469.61886    
   2806000   180.31537     -18104.301     -391.85701    
   2807000   181.30855     -18124.37      -697.01525    
   2808000   167.37203     -18177.069     -711.20541    
   2809000   176.53022     -18148.413     -670.62424    
   2810000   180.36952     -18129.07      -273.68867    
   2811000   179.19297     -18106.321     -415.84951    
   2812000   178.40636     -18080.764     -189.47867    
   2813000   172.86736     -18111.9        85.65373     
   2814000   180.35047     -18153.847     -730.24187    
   2815000   167.72223     -18126.963     -600.0937     
   2816000   180.51264     -18137.788     -525.66826    
   2817000   187.14949     -18104.307     -506.24353    
   2818000   183.42147     -18083.739     -666.68485    
   2819000   179.62113     -18119.39      -225.6827     
   2820000   171.16763     -18155.467     -501.4567     
   2821000   175.96344     -18141.08      -538.85948    
   2822000   178.18886     -18095.689     -392.06946    
   2823000   174.90866     -18110.868     -402.03948    
   2824000   171.54044     -18134.691     -317.41632    
   2825000   175.38056     -18143.998     -415.16098    
   2826000   183.21424     -18111.533     -397.98007    
   2827000   181.86865     -18134.722     -517.92203    
   2828000   170.48211     -18163.106     -773.51346    
   2829000   179.42705     -18135.819     -249.73669    
   2830000   184.75834     -18105.385     -469.67012    
   2831000   174.51997     -18128.798     -417.34015    
   2832000   175.87145     -18163.243     -869.56551    
   2833000   176.6986      -18123.052     -456.21437    
   2834000   179.91571     -18115.489     -667.39186    
   2835000   182.76154     -18128.342     -857.42171    
   2836000   169.17097     -18153.293     -446.34053    
   2837000   172.20672     -18159.934     -316.22873    
   2838000   164.40861     -18143.759     -619.13776    
   2839000   181.58636     -18110.945     -599.56737    
   2840000   178.10209     -18139.748     -796.30795    
   2841000   177.22895     -18133.365     -419.63043    
   2842000   179.2111      -18122.846     -551.17624    
   2843000   188.54069     -18071.834     -113.71734    
   2844000   172.60366     -18134.83      -886.52932    
   2845000   176.14177     -18119.691     -275.13501    
   2846000   182.11912     -18097.977     -471.73844    
   2847000   165.3445      -18200.887     -654.0724     
   2848000   174.17815     -18138.71      -30.677794    
   2849000   182.14727     -18102.02      -600.64597    
   2850000   177.24162     -18130.953     -589.91866    
   2851000   178.43421     -18123.183     -375.98159    
   2852000   176.29876     -18099.965     -236.22097    
   2853000   177.12279     -18076.583     -65.263797    
   2854000   182.58663     -18123.564     -119.89171    
   2855000   168.65781     -18143.977     -973.16025    
   2856000   181.87558     -18135.979     -275.35501    
   2857000   177.99523     -18091.275     -38.873841    
   2858000   189.97168     -18068.819      103.65406    
   2859000   188.64401     -18114.111     -617.37162    
   2860000   172.75109     -18139.347     -434.06231    
   2861000   179.85064     -18136.105     -309.12918    
   2862000   174.20739     -18161.064     -342.43658    
   2863000   169.72455     -18144.472     -377.63709    
   2864000   186.11468     -18106.25      -297.18991    
   2865000   179.67196     -18113.531     -536.08685    
   2866000   173.51937     -18146.625     -706.93522    
   2867000   172.83642     -18125.554     -487.02914    
   2868000   181.7468      -18086.722     -300.94358    
   2869000   184.24227     -18088.983     -70.527074    
   2870000   176.08675     -18142.957     -484.12326    
   2871000   176.17854     -18128.9       -569.21962    
   2872000   171.42526     -18127.494     -514.25192    
   2873000   175.46172     -18095.501     -507.64234    
   2874000   183.80689     -18135.99      -389.74031    
   2875000   178.04848     -18154.128     -947.30057    
   2876000   174.854       -18092.723     -404.56979    
   2877000   176.60505     -18139.732     -468.75515    
   2878000   171.09546     -18152.003     -472.31149    
   2879000   177.20093     -18131.944     -19.899008    
   2880000   182.60089     -18089.948     -617.37822    
   2881000   180.35522     -18136.07      -660.39041    
   2882000   173.70667     -18123.297     -423.69241    
   2883000   168.90255     -18155.992     -346.11332    
   2884000   173.29426     -18110.811     -125.20211    
   2885000   180.7695      -18107.615     -273.84694    
   2886000   172.95019     -18126.978     -435.51717    
   2887000   174.90845     -18126.066     -262.25685    
   2888000   176.77851     -18150.65      -453.73492    
   2889000   168.73862     -18147.23      -877.75735    
   2890000   175.7993      -18112.098     -434.78479    
   2891000   180.90988     -18097.38      -503.95106    
   2892000   177.26521     -18121.335     -387.04541    
   2893000   181.17557     -18119.357     -260.70808    
   2894000   176.49409     -18074.059      56.494814    
   2895000   180.61502     -18101.843     -151.77579    
   2896000   175.80619     -18098.881     -411.59496    
   2897000   171.99167     -18143.694     -583.54602    
   2898000   176.992       -18148.058     -499.51197    
   2899000   174.06676     -18127.369     -37.631332    
   2900000   183.83082     -18104.49      -431.41482    
   2901000   177.99872     -18133.535     -363.30662    
   2902000   167.94685     -18152.245     -535.76249    
   2903000   175.54766     -18111.636     -94.393015    
   2904000   177.75743     -18126.169     -806.45469    
   2905000   176.3595      -18149.793     -424.29752    
   2906000   184.00497     -18122.133     -264.07958    
   2907000   176.45701     -18078.432     -312.56317    
   2908000   183.05917     -18066.501      65.039941    
   2909000   177.45814     -18113.101     -379.26       
   2910000   180.67559     -18106.763     -454.96769    
   2911000   178.76325     -18072.52       68.270021    
   2912000   176.63259     -18084.125     -164.07537    
   2913000   169.87229     -18164.066     -181.62379    
   2914000   174.1333      -18128.748     -395.82989    
   2915000   178.27203     -18117.342     -327.64971    
   2916000   178.66295     -18103.111     -91.062933    
   2917000   178.83879     -18071.467     -105.50355    
   2918000   187.11644     -18062.944     -63.171491    
   2919000   175.64796     -18111.111     -339.03826    
   2920000   170.89732     -18127.544     -658.65246    
   2921000   179.00812     -18075.297      259.06791    
   2922000   188.30417     -18072.404     -380.33115    
   2923000   174.10266     -18100.907     -262.13494    
   2924000   179.22204     -18120.801     -650.80108    
   2925000   187.39776     -18125.757     -241.99195    
   2926000   174.65107     -18109.253     -290.33797    
   2927000   183.20779     -18084.476     -357.47605    
   2928000   183.54327     -18092.236     -352.19844    
   2929000   176.98641     -18103.205     -241.4858     
   2930000   172.98387     -18187.018     -612.8902     
   2931000   175.20054     -18076.84       53.371217    
   2932000   183.47718     -18079.979     -178.63022    
   2933000   186.68191     -18080.01      -679.12401    
   2934000   184.33192     -18121.688     -641.87561    
   2935000   174.28713     -18124.542     -688.70494    
   2936000   175.67033     -18146.215     -493.80646    
   2937000   177.64527     -18092.863     -81.609078    
   2938000   180.00322     -18060.133     -598.54981    
   2939000   175.867       -18067.097     -204.18592    
   2940000   180.96928     -18127.918     -611.13012    
   2941000   173.99286     -18135.678      23.076092    
   2942000   178.44053     -18102.584     -340.1049     
   2943000   187.27995     -18099.934     -244.47788    
   2944000   171.21915     -18149.532     -153.5212     
   2945000   183.14584     -18130.431     -644.95928    
   2946000   182.5658      -18075.613      248.85257    
   2947000   183.61418     -18086.864     -130.30675    
   2948000   178.72032     -18079.413      9.1471567    
   2949000   177.08333     -18118.506     -14.886817    
   2950000   169.4297      -18115.661     -431.272      
   2951000   172.71239     -18091.021      216.77888    
   2952000   176.79495     -18128.677     -154.50109    
   2953000   181.17081     -18091.301     -160.49022    
   2954000   172.32149     -18109.045     -12.666486    
   2955000   173.02074     -18148.494     -604.75727    
   2956000   169.0301      -18140.874      574.30607    
   2957000   172.72224     -18119.175     -162.06851    
   2958000   179.58618     -18099.49      -289.83056    
   2959000   184.58496     -18099.625     -94.677304    
   2960000   182.68055     -18090.386     -240.50365    
   2961000   174.89099     -18114.048     -151.46072    
   2962000   179.51284     -18105.371      220.47076    
   2963000   188.2315      -18055.221     -182.50524    
   2964000   187.73352     -18056.091      92.76319     
   2965000   183.40579     -18097.454     -133.99398    
   2966000   175.48301     -18097.464     -304.05424    
   2967000   179.2033      -18077.958     -215.40633    
   2968000   178.19192     -18063.688      314.51926    
   2969000   180.05318     -18104.256     -831.85719    
   2970000   184.35766     -18095.717      30.379706    
   2971000   182.55169     -18051.398      245.76586    
   2972000   185.02217     -18068.168     -130.90802    
   2973000   171.36405     -18074.462      50.993448    
   2974000   168.62914     -18142.254      145.80353    
   2975000   179.65298     -18103.066     -325.99465    
   2976000   168.48171     -18086.482      328.4569     
   2977000   180.20721     -18078.285     -19.251636    
   2978000   177.36342     -18126.978      7.605185     
   2979000   170.49556     -18138.566     -64.24466     
   2980000   174.9743      -18099.518      18.086097    
   2981000   181.81607     -18092.01      -230.75506    
   2982000   170.16388     -18123.118      46.55149     
   2983000   176.12969     -18090.406      21.654447    
   2984000   184.91317     -18047.353      211.50155    
   2985000   179.98904     -18064.074     -35.381165    
   2986000   175.89046     -18077.18      -62.135616    
   2987000   180.86419     -18101.158     -155.77109    
   2988000   180.18908     -18079.804     -253.05191    
   2989000   173.25528     -18110.725      157.44783    
   2990000   176.62886     -18115.336     -115.10268    
   2991000   172.67356     -18118.593      253.47771    
   2992000   177.94107     -18089.588     -542.55917    
   2993000   181.53282     -18045.921      431.17104    
   2994000   185.83868     -18074.557     -235.51319    
   2995000   181.20569     -18106.042      88.189002    
   2996000   173.34386     -18104.72       101.28483    
   2997000   195.05992     -18006.795      80.980119    
   2998000   166.72179     -18127.004      86.908066    
   2999000   173.11404     -18123.299      100.30714    
   3000000   177.70227     -18070.135      66.871364    
   3001000   186.86302     -18065.581     -400.00353    
   3002000   173.8438      -18095.847     -351.13213    
   3003000   180.44413     -18113.315      97.573853    
   3004000   187.83675     -18069.481     -122.87593    
   3005000   184.8147      -18080.423     -346.60711    
   3006000   179.07148     -18076.049     -443.39548    
   3007000   175.78196     -18106.615      39.487218    
   3008000   169.62604     -18144.332     -335.75612    
   3009000   174.69096     -18109.12      -77.13644     
   3010000   185.54778     -18072.161      179.32953    
   3011000   180.43026     -18113.031     -145.39099    
   3012000   183.43698     -18103.051     -198.42547    
   3013000   179.59929     -18058.683     -106.39947    
   3014000   182.63497     -18062.83       3.2743571    
   3015000   179.38105     -18117.728     -158.89336    
   3016000   173.90145     -18119.594      5.9701752    
   3017000   178.38718     -18099.758     -274.85449    
   3018000   195.89412     -18045.596      260.34618    
   3019000   178.396       -18097.761      103.47572    
   3020000   177.25967     -18117.399     -70.725292    
   3021000   172.37295     -18132.017     -406.20282    
   3022000   167.61453     -18163.539     -7.8104845    
   3023000   169.96806     -18099.931     -100.46361    
   3024000   181.05284     -18088.573      340.58868    
   3025000   184.09408     -18086.298      295.47737    
   3026000   180.4289      -18120.095     -235.45822    
   3027000   180.01569     -18114.624     -1.3090069    
   3028000   182.57741     -18116.269      34.210962    
   3029000   176.81749     -18101.684      560.97801    
   3030000   184.65713     -18076.211      17.615577    
   3031000   190.56368     -18047.932      425.97707    
   3032000   180.31972     -18090.99       200.66928    
   3033000   179.45737     -18101.01      -48.168207    
   3034000   177.11527     -18106.415      174.35722    
   3035000   172.64727     -18137.801     -107.5306     
   3036000   185.06225     -18102.775      410.16291    
   3037000   185.19745     -18075.074     -234.88037    
   3038000   182.10492     -18090.634     -340.55702    
   3039000   187.31129     -18103.718     -94.178339    
   3040000   180.99753     -18121.783      245.59851    
   3041000   177.22017     -18151.905     -674.99542    
   3042000   177.81981     -18110.394      36.179526    
   3043000   184.84175     -18099.228      92.999521    
   3044000   170.49353     -18133.862      94.605812    
   3045000   174.57095     -18133.458     -254.96675    
   3046000   190.28518     -18059.871      59.081827    
   3047000   180.48381     -18080.276     -22.549454    
   3048000   167.71189     -18107.851      205.71708    
   3049000   187.10475     -18106.363      74.618774    
   3050000   178.51137     -18103.964      246.79966    
   3051000   184.55475     -18047.094     -159.43234    
   3052000   178.77898     -18076.792      287.19318    
   3053000   180.84814     -18089.739     -100.25539    
   3054000   172.54752     -18150.152     -467.84953    
   3055000   185.14029     -18109.085     -191.79885    
   3056000   183.56193     -18074.682      442.5403     
   3057000   188.94849     -18072.304     -99.085171    
   3058000   172.73526     -18115.525     -536.1639     
   3059000   174.37795     -18111.269      323.96263    
   3060000   177.27348     -18101.348      26.382121    
   3061000   178.51764     -18076.8        276.58603    
   3062000   173.78861     -18113.832      202.37364    
   3063000   174.91261     -18132.487     -221.18754    
   3064000   168.91308     -18126.842     -46.570322    
   3065000   173.88115     -18086.395     -137.48476    
   3066000   181.18879     -18074.334     -114.15559    
   3067000   191.97125     -18052.37       123.39312    
   3068000   182.88871     -18069.07       33.083382    
   3069000   186.04661     -18106.066     -573.95868    
   3070000   175.48967     -18109.198      235.06077    
   3071000   183.77163     -18101.023      211.68114    
   3072000   181.2527      -18085.82      -74.268891    
   3073000   179.19073     -18070.533      227.62144    
   3074000   180.86749     -18083.671      323.49914    
   3075000   178.48917     -18147.553     -59.558378    
   3076000   191.92127     -18087.57      -105.25786    
   3077000   178.80574     -18082.37       123.78092    
   3078000   176.28497     -18116.706      528.86369    
   3079000   175.86021     -18134.472     -75.429328    
   3080000   182.67204     -18079.835      99.085777    
   3081000   178.75561     -18085.889      234.12375    
   3082000   174.12778     -18105.142      400.43982    
   3083000   174.50421     -18103.667      44.36205     
   3084000   188.62694     -18065.414     -87.307934    
   3085000   160.18828     -18147.857     -97.748422    
   3086000   175.79884     -18104.378      91.546724    
   3087000   177.34625     -18057.015      504.18071    
   3088000   182.52489     -18041.486      524.42017    
   3089000   177.8105      -18080.96       612.99529    
   3090000   177.29398     -18059.136      497.23975    
   3091000   182.8394      -18020.723      611.7827     
   3092000   171.80467     -18040.929      945.28343    
   3093000   182.75165     -18055.214      122.05385    
   3094000   179.61906     -18077.735     -34.790806    
   3095000   179.46098     -18086.035      121.3998     
   3096000   175.3647      -18078.456      371.52637    
   3097000   177.22335     -18062.213      167.99521    
   3098000   174.69678     -18093.739     -217.16272    
   3099000   170.26352     -18116.186      579.1757     
   3100000   171.66684     -18102.209      317.68433    
   3101000   182.33241     -18055.254     -122.43114    
   3102000   181.86353     -18068.227      34.856547    
   3103000   175.13336     -18099.703     -127.19305    
   3104000   166.20368     -18105.797      54.719986    
   3105000   181.18389     -18047.273      286.23718    
   3106000   174.63134     -18071.584      134.90521    
   3107000   180.09058     -18076.934     -328.19163    
   3108000   179.58889     -18075.213      503.80926    
   3109000   179.5456      -18037.266     -132.70303    
   3110000   188.95501     -18044.929      179.87191    
   3111000   169.0689      -18107.006     -9.8524441    
   3112000   171.08336     -18116.477     -163.21483    
   3113000   185.58424     -18067.675     -263.72305    
   3114000   172.08284     -18105.736     -187.92131    
   3115000   171.59991     -18100.71       388.86753    
   3116000   187.57753     -18021.965      146.97799    
   3117000   181.00185     -18039.464      249.45045    
   3118000   176.87425     -18075.641      73.620726    
   3119000   180.86452     -18105.004      224.57927    
   3120000   178.1383      -18111.356      152.94197    
   3121000   177.07347     -18052.425      304.15057    
   3122000   175.03456     -18091.337      168.49251    
   3123000   180.93786     -18118.008     -183.9267     
   3124000   170.10192     -18132.513      41.451061    
   3125000   179.45762     -18092.812      408.18535    
   3126000   175.29472     -18085.88      -72.474832    
   3127000   178.31153     -18074.994      8.0475015    
   3128000   172.4817      -18133.423      28.101375    
   3129000   174.63732     -18108.661      47.728522    
   3130000   172.89729     -18085.914      597.03523    
   3131000   180.596       -18055.93       160.2472     
   3132000   179.97271     -18080.789      422.7428     
   3133000   177.11837     -18062.655      142.07897    
   3134000   181.47079     -18037.495      340.23613    
   3135000   182.29586     -18059.049      264.9761     
   3136000   179.57136     -18077.557     -81.841924    
   3137000   167.36484     -18124.306     -347.41692    
   3138000   183.12047     -18042.191      126.25919    
   3139000   184.34355     -18040.231      195.15021    
   3140000   176.92522     -18043.805     -318.52987    
   3141000   174.82028     -18040.325      240.10479    
   3142000   190.21255     -18013.687      301.37992    
   3143000   181.91788     -18066.288     -109.85068    
   3144000   174.8772      -18071.595      108.22629    
   3145000   181.16409     -18085.394      80.935805    
   3146000   185.4096      -18030.856      144.31443    
   3147000   177.6096      -18074.818      590.7203     
   3148000   174.12351     -18091.719      74.892878    
   3149000   184.08652     -18060.045     -177.28194    
   3150000   179.57864     -18065.364      315.78164    
   3151000   176.0607      -18100.628      13.211975    
   3152000   169.55233     -18125.582     -36.745839    
   3153000   164.12397     -18129.348      120.66753    
   3154000   184.97481     -18049.699      13.30835     
   3155000   192.55814     -18054.296     -204.59641    
   3156000   180.6067      -18079.168     -362.47061    
   3157000   180.11044     -18100.981     -168.8394     
   3158000   176.66499     -18109.782     -51.079244    
   3159000   180.57601     -18075.872     -109.50388    
   3160000   180.23522     -18060.326     -266.07373    
   3161000   187.33759     -18065.327     -370.78403    
   3162000   179.30695     -18129.281      101.64928    
   3163000   178.37272     -18125.16       76.473827    
   3164000   179.37676     -18099.623     -152.23434    
   3165000   175.21927     -18077.333      231.8797     
   3166000   176.90805     -18093.143     -289.5664     
   3167000   164.34694     -18155.573     -342.12232    
   3168000   175.53211     -18074.236     -2.9781943    
   3169000   191.69624     -18043.215     -26.785475    
   3170000   178.22648     -18065.435      317.63662    
   3171000   173.00861     -18096.86       404.83259    
   3172000   179.44011     -18102.374      72.205391    
   3173000   178.22452     -18093.257      23.317589    
   3174000   178.87617     -18059.338      16.168531    
   3175000   181.97501     -18087.033      204.12309    
   3176000   184.84094     -18059.112      613.00049    
   3177000   179.74271     -18046.014      578.13316    
   3178000   166.4594      -18122.379      143.15161    
   3179000   172.91277     -18123.486     -300.26081    
   3180000   176.68693     -18081.799      75.156237    
   3181000   171.35039     -18120.575     -261.06598    
   3182000   177.93907     -18115.306      166.96196    
   3183000   178.0341      -18072.937     -256.13409    
   3184000   174.43476     -18068.158      96.457025    
   3185000   177.14393     -18078.949      378.76601    
   3186000   180.17341     -18043.263     -33.14065     
   3187000   190.17586     -18040.216     -181.62664    
   3188000   180.00816     -18069.005      151.82973    
   3189000   171.63217     -18081.825     -241.02335    
   3190000   186.09483     -18047.6        12.857481    
   3191000   178.13373     -18045.746     -143.33086    
   3192000   162.33721     -18155.13      -513.59153    
   3193000   181.21434     -18064.706      304.44428    
   3194000   185.74414     -18054.197      63.130356    
   3195000   181.3709      -18037.361      466.79367    
   3196000   171.90072     -18082.104      634.96527    
   3197000   165.72735     -18119.203      129.97249    
   3198000   177.12672     -18102.049      192.89041    
   3199000   175.14347     -18063.5        306.01985    
   3200000   186.21505     -18030.973      199.80543    
   3201000   184.26045     -18027.672      388.05356    
   3202000   178.73722     -18087.262     -407.17567    
   3203000   173.29795     -18108.078     -57.99693     
   3204000   168.82307     -18104.533      296.97854    
   3205000   179.57406     -18059.102      8.6060936    
   3206000   179.91781     -18057.442      11.488589    
   3207000   166.29308     -18078.571      68.034618    
   3208000   173.07484     -18099.937     -38.070264    
   3209000   168.01668     -18109.445      523.8712     
   3210000   180.54109     -18074.669     -96.257783    
   3211000   177.22403     -18070.892      282.99181    
   3212000   180.9162      -18086.657      250.14379    
   3213000   183.42825     -18061.847      432.03608    
   3214000   174.42839     -18076.231      211.95165    
   3215000   171.44887     -18089.849      119.398      
   3216000   181.49039     -18093.135      559.08169    
   3217000   179.53527     -18067.083      211.5057     
   3218000   182.32387     -18071.53      -216.0176     
   3219000   183.05089     -18092.591      71.713206    
   3220000   170.83613     -18123.015      180.11395    
   3221000   175.00276     -18118.674     -105.43504    
   3222000   174.90051     -18088.319      249.72276    
   3223000   185.77609     -18047.857     -419.69123    
   3224000   181.1575      -18093.034     -12.469729    
   3225000   178.01062     -18063.983      464.94142    
   3226000   182.64591     -18073.436     -56.610008    
   3227000   172.40741     -18093.743      159.45468    
   3228000   191.11273     -18033.75       182.53611    
   3229000   183.53716     -18021.503      461.89802    
   3230000   177.56283     -18095.119      166.14708    
   3231000   187.57281     -18048.034      65.222843    
   3232000   179.67172     -18055.334     -111.85445    
   3233000   183.25607     -18062.568      186.90543    
   3234000   173.24206     -18129.684     -330.38149    
   3235000   175.29607     -18104.806     -247.19907    
   3236000   179.75043     -18084.872     -55.386677    
   3237000   183.83022     -18066.16      -36.408236    
   3238000   176.32264     -18089.557      376.52582    
   3239000   177.28533     -18133.896     -2.1324425    
   3240000   177.01459     -18089.589     -149.12687    
   3241000   176.57409     -18037.693      75.09734     
   3242000   173.28082     -18085.933      415.75191    
   3243000   178.76155     -18094.632     -37.606135    
   3244000   173.65018     -18061.009      460.81901    
   3245000   176.16528     -18096.245      104.25314    
   3246000   177.03569     -18108.423      60.084637    
   3247000   180.32512     -18066.896      381.64575    
   3248000   193.29102     -18072.064     -174.24911    
   3249000   165.25665     -18167.443     -141.80185    
   3250000   173.48474     -18083.663      194.31487    
   3251000   181.3057      -18065.129      209.07697    
   3252000   170.74369     -18115.801      386.85645    
   3253000   177.65635     -18138.067     -18.150673    
   3254000   173.23679     -18081.664      129.42893    
   3255000   177.63173     -18050.105     -364.91343    
   3256000   183.26697     -18060.049     -438.24929    
   3257000   170.9418      -18082.723      247.05887    
   3258000   169.26181     -18157.132     -182.58383    
   3259000   178.60793     -18066.511      442.45992    
   3260000   184.52573     -18072.288     -141.56269    
   3261000   166.22542     -18150.672      113.4976     
   3262000   183.37785     -18064.534     -173.45655    
   3263000   180.81364     -18070.588      149.7224     
   3264000   180.37005     -18073.614     -256.67144    
   3265000   173.53753     -18089.195      126.43053    
   3266000   176.79297     -18097.612      404.18686    
   3267000   191.06182     -18051.474      219.11829    
   3268000   183.3862      -18072.332      330.15531    
   3269000   175.61447     -18096.788     -60.543672    
   3270000   177.53574     -18084.8        188.62814    
   3271000   179.13536     -18056.773     -60.45475     
   3272000   176.13161     -18074.722      140.57573    
   3273000   174.60942     -18095.21       344.7602     
   3274000   179.8624      -18112.512     -196.25267    
   3275000   172.71638     -18067.544      282.45901    
   3276000   187.69458     -18055.367      54.019896    
   3277000   177.44788     -18078.878      117.26339    
   3278000   182.87108     -18111.026     -84.806744    
   3279000   173.07454     -18126.169     -392.66984    
   3280000   180.56722     -18136.555     -223.6175     
   3281000   176.33449     -18098.445      196.82201    
   3282000   170.72043     -18074.425      151.11811    
   3283000   180.46761     -18109.685     -47.15006     
   3284000   173.44729     -18133.418     -200.0756     
   3285000   180.22393     -18109.613      212.87956    
   3286000   180.81616     -18064.232      299.69552    
   3287000   178.49298     -18105.93      -271.87671    
   3288000   168.93287     -18089.503      255.8541     
   3289000   176.34632     -18064.628     -167.77971    
   3290000   190.93782     -18046.588      376.573      
   3291000   185.93456     -18057.305      76.016954    
   3292000   178.03068     -18089.367     -13.367529    
   3293000   176.22106     -18103.913     -85.417429    
   3294000   175.94299     -18076.154      333.03599    
   3295000   182.51275     -18065.223      146.42825    
   3296000   177.78036     -18085.194      366.72502    
   3297000   186.04378     -18065.787     -284.84098    
   3298000   191.70622     -18011.537      750.45948    
   3299000   173.55778     -18081.43       737.00137    
   3300000   174.01932     -18102.607      221.99167    
   3301000   178.84219     -18128.026     -575.90469    
   3302000   173.84958     -18121.878     -202.70796    
   3303000   185.39387     -18080.513      134.12166    
   3304000   177.89768     -18060.978     -134.31354    
   3305000   176.23684     -18092.228      464.98334    
   3306000   172.4601      -18093.958      527.18877    
   3307000   175.13591     -18116.182      169.85395    
   3308000   182.99003     -18063.064      240.37554    
   3309000   184.6985      -18089.387      246.37962    
   3310000   183.15075     -18075.462     -111.75138    
   3311000   181.9241      -18035.484      472.5941     
   3312000   179.67818     -18064.97       679.16479    
   3313000   181.13321     -18084.014      53.81445     
   3314000   173.71063     -18113.908     -75.63027     
   3315000   181.36397     -18095.508     -123.077      
   3316000   171.81308     -18111.483      1.189873     
   3317000   180.54195     -18073.313      481.52056    
   3318000   184.6206      -18071.155     -13.923178    
   3319000   185.76941     -18101.72      -45.16501     
   3320000   184.35253     -18090.663     -98.165769    
   3321000   181.18971     -18065.561      528.65522    
   3322000   180.48056     -18086.563      362.78063    
   3323000   184.22967     -18101.67       272.40427    
   3324000   175.09632     -18123.733      273.93675    
   3325000   176.42446     -18131.822     -132.89359    
   3326000   173.80944     -18111.825      753.96467    
   3327000   187.72126     -18116.11      -212.86338    
   3328000   171.30209     -18131.653     -76.562279    
   3329000   173.77123     -18111.071      123.17255    
   3330000   179.16505     -18091.948      338.20039    
   3331000   177.0736      -18092.882      294.91387    
   3332000   177.67369     -18143.094     -199.67247    
   3333000   178.33377     -18100.289      319.12724    
   3334000   180.31647     -18078.515     -6.2117375    
   3335000   182.9671      -18060.261      241.40045    
   3336000   176.45196     -18095.109      600.58495    
   3337000   178.60182     -18088.539     -41.755519    
   3338000   168.37595     -18084.715      243.18342    
   3339000   182.09388     -18028.34       242.08415    
   3340000   184.26172     -18025.658     -70.232263    
   3341000   186.3784      -18068.753     -39.87439     
   3342000   178.80079     -18071.765      119.16168    
   3343000   169.82548     -18129.456     -332.43736    
   3344000   171.95358     -18126.815      63.135535    
   3345000   185.65999     -18039         -65.918211    
   3346000   184.013       -18056.066      151.74929    
   3347000   173.25807     -18090.647      384.32627    
   3348000   176.25128     -18109.965     -414.63473    
   3349000   170.82822     -18094.771     -307.38084    
   3350000   180.10609     -18086.343      192.79119    
   3351000   177.44647     -18018.253     -41.621707    
   3352000   184.93642     -18074.233     -11.292558    
   3353000   179.36621     -18071.626     -317.82463    
   3354000   184.48335     -18032.631      195.53427    
   3355000   174.09583     -18042.297     -81.002611    
   3356000   173.346       -18068.045      344.19405    
   3357000   180.5217      -18063.135      202.16269    
   3358000   182.04189     -18054.043      118.04531    
   3359000   185.09612     -18009.315      537.77483    
   3360000   188.06628     -18021.322      357.58971    
   3361000   171.44142     -18080.793      391.12236    
   3362000   177.99079     -18092.322     -328.65227    
   3363000   176.47789     -18078.741      164.23852    
   3364000   181.56157     -18059.182      526.80841    
   3365000   183.07955     -18054.872      118.25119    
   3366000   189.09058     -18072.187      40.42338     
   3367000   182.45343     -18083.582      177.43058    
   3368000   177.69056     -18072.868      398.32327    
   3369000   184.045       -18037.209      253.07977    
   3370000   172.1343      -18058.306      176.74767    
   3371000   178.50525     -18060.945      42.990715    
   3372000   172.9418      -18114.751      288.0519     
   3373000   174.25813     -18070.417     -148.50627    
   3374000   175.65155     -18083.655     -277.37826    
   3375000   169.52214     -18136.167     -357.86187    
   3376000   181.13946     -18087.665     -306.74398    
   3377000   181.6079      -18073.491     -41.595938    
   3378000   184.10139     -18086.481      40.743117    
   3379000   167.76188     -18135.01      -310.3632     
   3380000   183.29562     -18105.439     -602.73701    
   3381000   171.01108     -18113.478     -431.22094    
   3382000   169.8304      -18115.308      355.13729    
   3383000   171.85918     -18073.088     -49.581241    
   3384000   180.27297     -18087.886     -308.75368    
   3385000   175.26005     -18099.117     -219.72754    
   3386000   176.32049     -18077.251     -135.19677    
   3387000   191.7566      -18088.248     -282.8518     
   3388000   172.20335     -18116.784     -192.04115    
   3389000   185.98335     -18098.194     -417.82961    
   3390000   181.59302     -18065.194      313.29051    
   3391000   184.8276      -18027.126      196.24717    
   3392000   179.49026     -18096.322     -315.0422     
   3393000   165.6         -18104.099     -272.37363    
   3394000   169.21415     -18121.843     -418.0002     
   3395000   174.14365     -18129.503     -593.07787    
   3396000   179.9823      -18068.215     -141.98022    
   3397000   177.04058     -18077.107     -263.2295     
   3398000   176.71433     -18097.754     -187.07616    
   3399000   172.54684     -18145.049     -801.2013     
   3400000   179.26046     -18134.135     -564.16099    
   3401000   174.11985     -18102.924     -83.948583    
   3402000   173.82646     -18087.663     -82.739424    
   3403000   198.24447     -18016.282     -373.1981     
   3404000   176.33742     -18100.456     -88.760362    
   3405000   186.14602     -18083.929     -653.40139    
   3406000   179.07652     -18063.008      595.94218    
   3407000   177.27989     -18079.175      254.57541    
   3408000   179.29841     -18107.214      106.72763    
   3409000   176.01532     -18134.021     -273.92207    
   3410000   176.86733     -18092.909     -261.83286    
   3411000   183.32153     -18096.815      41.377121    
   3412000   180.66248     -18061.968     -89.112571    
   3413000   184.42246     -18081.881     -196.30383    
   3414000   169.05972     -18093.785      90.134023    
   3415000   176.22104     -18079.918     -49.414244    
   3416000   174.07649     -18080.725      66.826716    
   3417000   181.30641     -18071.346      139.08658    
   3418000   172.99479     -18106.753     -66.631324    
   3419000   173.84762     -18109.3        124.94117    
   3420000   174.70485     -18058.236      81.705331    
   3421000   173.17031     -18101.276     -128.74922    
   3422000   167.50785     -18093.051      339.67155    
   3423000   181.25199     -18069.833      226.92753    
   3424000   174.53028     -18079.483      62.693746    
   3425000   181.78862     -18066.461     -21.877776    
   3426000   170.04641     -18121.667     -446.52227    
   3427000   176.42898     -18060.603     -1.7614109    
   3428000   185.31169     -18051.774     -7.3159229    
   3429000   174.4818      -18091.696      476.45359    
   3430000   187.03764     -18011.726      558.26815    
   3431000   181.23333     -18037.147      227.13305    
   3432000   170.57422     -18084.687      217.05923    
   3433000   178.84492     -18104.867      93.507653    
   3434000   174.01992     -18117.91      -296.97882    
   3435000   174.90626     -18105.523     -47.634002    
   3436000   190.6824      -18072.096     -4.4668854    
   3437000   178.59473     -18074.483      376.40512    
   3438000   175.6255      -18119.047     -207.75273    
   3439000   181.31569     -18099.86      -32.5698      
   3440000   178.54251     -18057.406      2.2295783    
   3441000   185.91543     -18049.252      53.370079    
   3442000   188.80373     -18048.903      283.23405    
   3443000   175.99063     -18086.426      158.64502    
   3444000   169.58759     -18089.696     -385.9136     
   3445000   180.13126     -18072.934      213.19531    
   3446000   183.6111      -18067.151      143.68119    
   3447000   180.89253     -18091.128      298.47195    
   3448000   179.50309     -18102.379     -143.09979    
   3449000   184.57342     -18062.537      117.24219    
   3450000   186.24383     -18065.447     -21.825501    
   3451000   177.33779     -18095.753     -447.49932    
   3452000   174.06906     -18090.793      122.40481    
   3453000   178.87584     -18073.345      313.46327    
   3454000   191.9504      -18036.78       192.69886    
   3455000   180.52719     -18090.946     -171.4923     
   3456000   177.48562     -18098.411      506.37957    
   3457000   189.192       -18052.067      6.4486647    
   3458000   182.09035     -18075.02       483.61623    
   3459000   169.31913     -18135.78      -279.10426    
   3460000   170.87667     -18115.068     -31.838659    
   3461000   172.87733     -18071.987      250.01657    
   3462000   176.83049     -18065.73       313.92943    
   3463000   180.02413     -18033.767      229.8822     
   3464000   178.32857     -18068.152      422.94764    
   3465000   176.66011     -18080.891      222.51691    
   3466000   179.26433     -18108.245     -83.543831    
   3467000   182.05681     -18073.584     -411.44942    
   3468000   174.78368     -18079.95       134.22618    
   3469000   167.11373     -18111.05       257.02878    
   3470000   180.69351     -18121.268     -150.38054    
   3471000   172.00042     -18088.952      259.11063    
   3472000   167.59066     -18101.888      138.93157    
   3473000   168.9569      -18131.757     -202.44246    
   3474000   179.42265     -18103.946     -548.87741    
   3475000   182.14842     -18076.244     -148.63509    
   3476000   180.39477     -18067.217      183.51235    
   3477000   174.02416     -18084.579     -222.13678    
   3478000   177.68761     -18102.269     -216.27439    
   3479000   176.59319     -18118.001     -105.91186    
   3480000   179.03251     -18073.314      296.06414    
   3481000   179.16819     -18087.639      338.06468    
   3482000   177.40714     -18110.807     -368.28587    
   3483000   173.47179     -18109.137     -108.16801    
   3484000   171.01609     -18065.712     -243.27394    
   3485000   181.50577     -18066.554     -128.18534    
   3486000   193.40157     -18036.303      200.75903    
   3487000   179.83392     -18084.004     -175.11041    
   3488000   178.92143     -18086.152      13.738654    
   3489000   167.07929     -18112.988      186.86509    
   3490000   169.23205     -18129.679     -273.73095    
   3491000   173.0497      -18137.277     -112.91183    
   3492000   182.32853     -18084.255     -249.2712     
   3493000   172.52419     -18111.471      812.25391    
   3494000   175.54039     -18134.37      -333.30218    
   3495000   167.4382      -18121.562      67.939111    
   3496000   174.09809     -18073.325      115.9174     
   3497000   181.15222     -18093.862      231.33722    
   3498000   173.57547     -18116.643     -135.22777    
   3499000   175.62037     -18085.221     -56.639503    
   3500000   177.57522     -18076.703     -69.684344    
   3501000   189.9218      -18025.421      447.65675    
   3502000   178.72529     -18067.711     -216.27204    
   3503000   180.21203     -18084.39      -222.93415    
   3504000   173.35239     -18103.65       113.58469    
   3505000   173.50574     -18144.787     -533.21033    
   3506000   186.95696     -18065.447     -82.715195    
   3507000   177.33439     -18081.746     -462.28383    
   3508000   173.91463     -18119.442     -236.03956    
   3509000   177.34125     -18082.829      304.86784    
   3510000   184.89089     -18079.285      97.452487    
   3511000   168.65353     -18133.079     -499.44617    
   3512000   171.31776     -18140.71      -145.72813    
   3513000   178.79385     -18116.047     -60.161543    
   3514000   186.05451     -18090.797      70.65706     
   3515000   183.23742     -18055.847      141.54327    
   3516000   172.36746     -18086.824      44.948114    
   3517000   165.75844     -18125.611      231.79304    
   3518000   175.69184     -18087.215      86.564096    
   3519000   189.31956     -18070.915     -444.69037    
   3520000   183.21697     -18069.54       142.91721    
   3521000   176.224       -18096.601      240.97515    
   3522000   173.30997     -18094.647     -211.59867    
   3523000   173.55734     -18108.402     -261.34723    
   3524000   173.25601     -18134.545     -264.50079    
   3525000   184.30898     -18091.749     -161.94895    
   3526000   191.92565     -18073.363      4.0711661    
   3527000   179.68127     -18087.562      40.346902    
   3528000   168.73493     -18111.462     -60.781014    
   3529000   171.859       -18126.585     -67.724467    
   3530000   180.44404     -18077.91       97.88026     
   3531000   168.85165     -18130.236      84.41643     
   3532000   171.29741     -18129.834     -372.33034    
   3533000   177.86716     -18073.017     -401.17017    
   3534000   181.81731     -18061.074      636.15222    
   3535000   175.13983     -18131.287     -572.81611    
   3536000   167.79764     -18126.165      34.537149    
   3537000   181.22821     -18076.993      174.29227    
   3538000   180.0958      -18058.54      -77.26677     
   3539000   184.9375      -18083.264     -77.313409    
   3540000   176.08635     -18117.826      3.8687746    
   3541000   177.59037     -18100.234     -90.91146     
   3542000   176.42142     -18094.494     -60.286841    
   3543000   183.85909     -18126.936     -416.26333    
   3544000   171.25207     -18121.63       110.4642     
   3545000   180.01427     -18079.342      485.20495    
   3546000   180.29576     -18075.181      201.72203    
   3547000   174.37634     -18105.903      370.9117     
   3548000   179.25437     -18096.358      169.04878    
   3549000   177.1424      -18099.364      124.49996    
   3550000   185.63817     -18063.198      497.94395    
   3551000   186.65733     -18042.598      411.74229    
   3552000   191.94132     -18040.517      420.9654     
   3553000   183.13465     -18060.834      644.73063    
   3554000   172.93384     -18102.248      313.88949    
   3555000   177.15014     -18071.358      300.98258    
   3556000   182.66639     -18037.335      888.9878     
   3557000   192.37611     -18017.94       272.02564    
   3558000   185.34757     -18057.383      179.29811    
   3559000   181.16947     -18065.66       622.9282     
   3560000   187.20012     -18040.092      406.87442    
   3561000   184.57927     -18028.726      165.25726    
   3562000   176.94933     -18037.777      179.49173    
   3563000   184.12553     -18061.089     -142.81431    
   3564000   173.90414     -18092.249      202.32074    
   3565000   173.90906     -18120.197      291.7344     
   3566000   176.53573     -18084.414      119.2516     
   3567000   177.55947     -18051.814      272.13313    
   3568000   179.51009     -18049.465      275.24247    
   3569000   172.80385     -18091.663      438.80541    
   3570000   180.95135     -18063.389      180.60218    
   3571000   176.01203     -18044.713      553.56103    
   3572000   179.45378     -18031.73       312.84245    
   3573000   179.37162     -18063.309      73.744109    
   3574000   173.87052     -18107.29       501.06355    
   3575000   177.87064     -18094.693      475.83434    
   3576000   182.52399     -18059.53       434.46778    
   3577000   191.05987     -18046.188      545.19868    
   3578000   181.71129     -18050.338      507.64921    
   3579000   179.32547     -18082.282      170.53693    
   3580000   172.54276     -18112.753      128.41404    
   3581000   174.41956     -18135.552     -301.57121    
   3582000   185.5851      -18050.323      510.8797     
   3583000   176.13388     -18053.164      347.92145    
   3584000   182.76832     -18087.502     -209.44931    
   3585000   180.69741     -18051.542      399.83746    
   3586000   180.22278     -18019.92       764.49228    
   3587000   182.96209     -18041.167      391.58247    
   3588000   180.56371     -18070.803     -34.900004    
   3589000   160.54676     -18130.471      385.91434    
   3590000   176.21468     -18106.912      268.53669    
   3591000   175.539       -18086.829      339.49752    
   3592000   179.89271     -18045.705      322.72794    
   3593000   175.497       -18049.912      233.89609    
   3594000   186.85478     -18085.364     -76.697194    
   3595000   176.63517     -18135.727     -626.9958     
   3596000   174.55407     -18060.331      342.97006    
   3597000   172.29215     -18036.056      550.63415    
   3598000   173.09906     -18066.599      250.77502    
   3599000   178.37827     -18099.368      0.27468785   
   3600000   172.41513     -18086.307     -36.023139    
   3601000   180.26734     -18010.489      686.082      
   3602000   179.89348     -18059.463      371.43989    
   3603000   181.25564     -18077.672      157.01215    
   3604000   173.78737     -18091.404     -84.904931    
   3605000   164.56673     -18137.796     -54.989793    
   3606000   176.87583     -18060.67      -45.271683    
   3607000   184.43381     -18053.754      76.864595    
   3608000   172.59236     -18094.601      203.50221    
   3609000   165.1147      -18109.05       175.36538    
   3610000   172.34491     -18055.198      2.6332824    
   3611000   177.9668      -18074.018      244.20177    
   3612000   168.87595     -18091.24       438.30311    
   3613000   187.10235     -18002.867      580.90292    
   3614000   173.8505      -18024.916      649.72093    
   3615000   190.7459      -18081.169      323.05858    
   3616000   177.20155     -18093.931      151.7586     
   3617000   163.56133     -18106.384      422.83727    
   3618000   173.23575     -18071.864      144.86018    
   3619000   180.02266     -18065.253      443.97765    
   3620000   174.99019     -18076.199     -178.46743    
   3621000   184.39225     -18065.866      185.12208    
   3622000   186.88246     -18042.697      16.88067     
   3623000   187.34423     -18016.695     -239.09474    
   3624000   173.47396     -18080.203      81.576241    
   3625000   176.07815     -18089.211      306.93509    
   3626000   182.9336      -18040.93       635.20234    
   3627000   176.58828     -18090.547      758.98156    
   3628000   167.69027     -18101.259     -122.39494    
   3629000   167.0312      -18117.459      248.87921    
   3630000   170.88372     -18083.073      120.60855    
   3631000   189.16274     -18065.071      95.713137    
   3632000   177.94716     -18080.351     -52.985493    
   3633000   170.52344     -18113.721     -5.7228467    
   3634000   168.82602     -18106.088      50.506713    
   3635000   176.2846      -18071.277     -51.636641    
   3636000   175.97429     -18094.69       491.0812     
   3637000   174.43791     -18135.312     -92.489982    
   3638000   179.31706     -18046.322      373.74066    
   3639000   172.46457     -18050.917      659.66134    
   3640000   162.15921     -18137.48       13.858366    
   3641000   173.06156     -18032.631      681.24546    
   3642000   189.3768      -18062.513      417.30267    
   3643000   167.89727     -18130.524      46.59698     
   3644000   174.95139     -18076.47       227.38365    
   3645000   185.7264      -18020.882      363.87364    
   3646000   179.45414     -18051.615      261.88337    
   3647000   184.22679     -18061.875      132.98065    
   3648000   176.61329     -18104.865      93.231195    
   3649000   178.27898     -18051.516      200.77453    
   3650000   183.47847     -18050.874      496.20549    
   3651000   165.086       -18126.483      235.93044    
   3652000   183.01844     -18082.267      173.31999    
   3653000   174.17654     -18061.438      617.3687     
   3654000   189.9932      -18044.611      113.55789    
   3655000   176.38612     -18084.948      510.79859    
   3656000   176.98796     -18096.756      344.08589    
   3657000   182.0816      -18051.157      279.51985    
   3658000   188.86127     -18025.513      495.93973    
   3659000   188.10376     -18016.452      298.13213    
   3660000   183.53995     -18085.204      278.71341    
   3661000   185.69879     -18073.206      31.287128    
   3662000   188.88945     -18055.082      154.07613    
   3663000   173.74885     -18102.107     -61.303512    
   3664000   177.47341     -18083.214      5.3134501    
   3665000   186.01595     -18044.193      565.80767    
   3666000   174.97625     -18033.326      665.18812    
   3667000   184.68021     -18055.161      702.66845    
   3668000   178.06822     -18075.799     -196.30063    
   3669000   181.37717     -18046.402      333.1288     
   3670000   179.98991     -18032.937      712.07948    
   3671000   187.96763     -18048.579      226.01463    
   3672000   176.64554     -18089.483      642.55507    
   3673000   181.88759     -18057.208      516.37372    
   3674000   178.23602     -18047.916      885.8529     
   3675000   170.94567     -18075.641      53.831181    
   3676000   169.41828     -18085.187      1277.6064    
   3677000   173.1419      -18101.255      85.508158    
   3678000   177.91352     -18070.753      2.165846     
   3679000   187.08058     -18059.409      334.33864    
   3680000   180.93342     -18054.237      93.519311    
   3681000   176.35374     -18093.58       312.99581    
   3682000   172.86706     -18127.875      190.75465    
   3683000   177.56003     -18099.186      290.44499    
   3684000   180.23458     -18080.389      343.51743    
   3685000   179.79735     -18054.085      655.721      
   3686000   172.74208     -18112.695      303.18341    
   3687000   172.52917     -18110.361      141.86029    
   3688000   178.43034     -18069.756      960.41805    
   3689000   181.66478     -18059.41       163.07273    
   3690000   186.61912     -18043.011      76.551691    
   3691000   182.7978      -18044.557      356.40458    
   3692000   175.20699     -18086.24       496.88365    
   3693000   178.31441     -18073.746      222.69542    
   3694000   173.98119     -18068.409      580.20999    
   3695000   183.54317     -18025.838      504.67175    
   3696000   184.39405     -18054.977      550.58666    
   3697000   178.36918     -18076.975      143.80244    
   3698000   177.48941     -18096.946      275.17288    
   3699000   179.41061     -18091.077      78.365912    
   3700000   183.04077     -18045.031      411.63492    
   3701000   184.91143     -18044.911      571.2889     
   3702000   170.10247     -18099.86       211.71961    
   3703000   173.34167     -18098.384      198.76643    
   3704000   188.08005     -18015.206      339.43394    
   3705000   179.70065     -18079.665      385.49149    
   3706000   178.6117      -18098.812      156.76815    
   3707000   171.27201     -18112.781      533.3917     
   3708000   175.56317     -18078.781      639.79005    
   3709000   174.0947      -18064.968      545.03105    
   3710000   201.63074     -17978.78       224.10342    
   3711000   178.69423     -18077.331      228.32428    
   3712000   170.37382     -18100.466      281.80453    
   3713000   174.23765     -18074.104      544.61489    
   3714000   176.81174     -18031.906      873.132      
   3715000   182.91882     -18063.437      255.99205    
   3716000   174.23131     -18090.313      311.07918    
   3717000   177.95621     -18069.893      367.46569    
   3718000   176.31947     -18014.639      807.65311    
   3719000   181.94587     -18057.454      101.63461    
   3720000   175.62082     -18070.827      2.0814002    
   3721000   175.4938      -18079.654      345.70513    
   3722000   180.885       -18022.611      503.53846    
   3723000   186.31456     -18037.613      566.35034    
   3724000   177.43164     -18037.577      71.179516    
   3725000   176.68804     -18068.085      211.88301    
   3726000   179.8946      -18100.986      229.73212    
   3727000   168.39833     -18109.332      3.2065439    
   3728000   181.13255     -18062.598      162.30585    
   3729000   168.48186     -18056.445      376.69681    
   3730000   168.05778     -18097.861      712.26025    
   3731000   180.20396     -18058.496      714.99239    
   3732000   182.61335     -18038.061      723.60709    
   3733000   182.89288     -17999.223      511.72472    
   3734000   185.76963     -18032.098      272.33207    
   3735000   176.84305     -18066.184      322.83155    
   3736000   178.3849      -18067.944      215.09855    
   3737000   186.48607     -18022.357      486.45066    
   3738000   184.27074     -18030.107      135.23116    
   3739000   182.58746     -18062.248      683.83539    
   3740000   181.66146     -18080.786      541.16466    
   3741000   184.51731     -18023.314      292.05303    
   3742000   184.99338     -18023.19      -1.4915429    
   3743000   170.15569     -18078.164      281.47105    
   3744000   170.62717     -18069.895      112.80385    
   3745000   184.21329     -18011.028      695.70524    
   3746000   184.70747     -18021.976      454.82279    
   3747000   174.59219     -18055.788      509.01576    
   3748000   169.40458     -18100.185      418.58972    
   3749000   167.29351     -18120.585      137.47859    
   3750000   177.33125     -18101.826      140.1819     
   3751000   181.08216     -18072.114      438.05657    
   3752000   181.11884     -18034.8        772.97531    
   3753000   184.12331     -18037.219      384.02222    
   3754000   173.08493     -18070.608      241.69246    
   3755000   175.31415     -18094.56      -8.4460426    
   3756000   190.34589     -18013.659      163.86472    
   3757000   172.90813     -18091.098      168.56994    
   3758000   176.22781     -18092.442      495.58211    
   3759000   170.20103     -18136.18      -231.25278    
   3760000   177.89899     -18103.927      127.59941    
   3761000   190.63746     -18089.791      268.23579    
   3762000   169.84711     -18125.138     -166.62435    
   3763000   179.57324     -18102.312      306.19466    
   3764000   175.09621     -18096.988      224.88318    
   3765000   183.00907     -18074.59       49.721361    
   3766000   189.05375     -18041.975      225.49291    
   3767000   180.14075     -18048.662      426.13133    
   3768000   186.65197     -18079.676     -23.106776    
   3769000   179.49658     -18103.475     -148.78512    
   3770000   174.30437     -18096.457      516.3862     
   3771000   182.92725     -18062.44      -332.47581    
   3772000   176.47387     -18077.294      190.71107    
   3773000   177.08766     -18091.999      234.67934    
   3774000   177.25658     -18130.577      68.269877    
   3775000   180.24412     -18076.733      124.00327    
   3776000   185.74448     -18048.338      115.03199    
   3777000   190.39601     -18068.103     -9.5711421    
   3778000   180.67171     -18079.825      632.3589     
   3779000   175.72877     -18085.482      137.4904     
   3780000   187.08795     -18049.347      2.0479873    
   3781000   181.69496     -18036.437      710.06137    
   3782000   184.83509     -18036.201      458.52666    
   3783000   185.30645     -18084.371      210.67996    
   3784000   183.74174     -18084.145      372.27734    
   3785000   175.62552     -18088.64       635.18787    
   3786000   173.6496      -18117.73      -165.83776    
   3787000   169.04858     -18152.514      116.91099    
   3788000   186.53349     -18061.267      409.2227     
   3789000   171.34492     -18101.357      524.84377    
   3790000   179.47962     -18087.502      174.41577    
   3791000   189.69961     -18088.196     -118.17452    
   3792000   179.99701     -18054.692     -31.35162     
   3793000   186.24567     -18057.868      465.89043    
   3794000   182.9361      -18069.323     -47.319408    
   3795000   188.3311      -18060.952      486.26766    
   3796000   175.3949      -18059.901     -11.79441     
   3797000   177.25378     -18089.441      172.33651    
   3798000   174.29551     -18094.726      54.733704    
   3799000   185.22834     -18079.173      115.98633    
   3800000   178.90728     -18047.775      648.06352    
   3801000   184.11965     -18033.212     -91.998782    
   3802000   187.74835     -18029.686     -21.341271    
   3803000   181.04327     -18084.1        123.86067    
   3804000   169.46971     -18084.766     -214.2885     
   3805000   178.28906     -18055.031      542.6076     
   3806000   183.28607     -18020.807      498.40731    
   3807000   179.54119     -18067.404     -361.40753    
   3808000   174.8193      -18085.162     -98.366323    
   3809000   174.397       -18085.695      91.220946    
   3810000   182.50305     -18038.705     -274.36733    
   3811000   188.72157     -18041.528      242.84084    
   3812000   173.40607     -18049.638      287.9016     
   3813000   175.00444     -18090.307      147.53002    
   3814000   174.63249     -18102.852      499.46335    
   3815000   176.80192     -18123.129      91.064765    
   3816000   186.28998     -18049.602      176.01132    
   3817000   177.30875     -18077.039      456.66666    
   3818000   177.24288     -18090.935      503.84399    
   3819000   177.00264     -18082.67       380.86931    
   3820000   188.52433     -18020.198      347.66589    
   3821000   181.01524     -18071.356      397.12323    
   3822000   182.68828     -18088.287     -268.95083    
   3823000   182.70646     -18064.455      159.29966    
   3824000   187.68718     -18027.676      257.47824    
   3825000   184.8594      -18043.642      118.55458    
   3826000   179.30655     -18060.111     -90.462516    
   3827000   165.03134     -18138.693      274.84588    
   3828000   183.71283     -18069.289      175.44096    
   3829000   179.66648     -18052.103      488.79549    
   3830000   178.31524     -18052.944      78.542967    
   3831000   173.43599     -18089.022      169.59365    
   3832000   183.97973     -18044.526      531.8719     
   3833000   185.64656     -18032.358      293.33588    
   3834000   175.6436      -18084.889      80.687084    
   3835000   173.56068     -18053.45       569.34728    
   3836000   177.74526     -18028.391      285.92543    
   3837000   175.96344     -18049.365      354.88273    
   3838000   178.80499     -18079.853     -225.26453    
   3839000   180.80822     -18086.033      90.816361    
   3840000   191.80335     -18030.161      26.65452     
   3841000   181.14644     -18023.283      356.51016    
   3842000   181.80414     -18049.289     -36.082615    
   3843000   185.22226     -18064.049     -8.4664138    
   3844000   176.42021     -18039.483      202.59237    
   3845000   181.52045     -18017.178     -1.0021299    
   3846000   174.9174      -18061.888      263.71624    
   3847000   176.26786     -18051.365      633.17055    
   3848000   183.0548      -18036.218      585.66606    
   3849000   187.05536     -18006.332      277.54624    
   3850000   189.62998     -18025.817      544.05959    
   3851000   181.38574     -18026.888      170.62177    
   3852000   172.28507     -18074.172      402.74795    
   3853000   168.68393     -18087.706      261.14779    
   3854000   170.27409     -18060.71       250.86814    
   3855000   180.10527     -18042.375      721.77033    
   3856000   181.94294     -18052.36       227.09859    
   3857000   183.73445     -18047.833      3.8917709    
   3858000   181.28741     -18055.89       32.098071    
   3859000   172.84996     -18066.141     -173.94387    
   3860000   175.46504     -18053.056     -43.980275    
   3861000   183.50168     -18055.576      212.30258    
   3862000   176.06528     -18061.359      289.23385    
   3863000   181.83175     -18040.164      220.95301    
   3864000   188.08889     -18042.613      250.62619    
   3865000   175.55298     -18087.656      98.824181    
   3866000   170.91151     -18068.309      296.16245    
   3867000   181.58506     -18066.632      479.89194    
   3868000   186.12581     -17988.397      532.3042     
   3869000   170.62976     -18058.313      801.36317    
   3870000   179.03017     -18064.671      568.21775    
   3871000   168.43374     -18080.057      441.1347     
   3872000   183.87987     -18058.754      528.8649     
   3873000   186.03796     -18020.26       578.44123    
   3874000   174.93208     -18045.396      353.19629    
   3875000   169.89512     -18090.234      576.76079    
   3876000   176.59005     -18049.666      613.33633    
   3877000   169.48649     -18050.109      602.22827    
   3878000   168.133       -18081.149     -167.31692    
   3879000   179.73798     -18065.23       122.91293    
   3880000   179.08311     -18037.672      396.99163    
   3881000   177.93027     -18081.433     -30.778884    
   3882000   178.60169     -18084.213      260.68159    
   3883000   185.19421     -18045.589      656.09113    
   3884000   177.70693     -18049.729      322.48134    
   3885000   169.33118     -18095.774      293.63508    
   3886000   171.513       -18070.984     -94.993139    
   3887000   187.09908     -18053.341      183.95134    
   3888000   188.70621     -18031.374      583.7285     
   3889000   181.98802     -18058.247      161.45555    
   3890000   172.55131     -18077.976     -25.927506    
   3891000   175.55785     -18076.281      198.29834    
   3892000   180.92333     -18065.095      623.75896    
   3893000   184.51562     -18018.177      589.40444    
   3894000   176.22255     -18018.264      368.39785    
   3895000   190.56451     -18057.513      317.33162    
   3896000   174.65974     -18076.77       83.384287    
   3897000   165.3257      -18106.604      450.98609    
   3898000   180.91763     -18064.218      457.67118    
   3899000   189.58927     -18047.482      175.50901    
   3900000   173.01509     -18057.793      603.60754    
   3901000   171.7814      -18102.876      28.656322    
   3902000   172.98586     -18087.339      345.39168    
   3903000   173.41685     -18062.156      438.01778    
   3904000   173.35121     -18050.516      670.66134    
   3905000   179.53381     -18029.965      686.23328    
   3906000   177.81489     -18043.005      315.41267    
   3907000   177.19193     -18066.158      680.26344    
   3908000   175.71912     -18062.827      446.61414    
   3909000   185.83749     -18019.185      822.37287    
   3910000   183.55451     -18048.369      393.34725    
   3911000   172.77259     -18079.434      163.07259    
   3912000   174.84494     -18094.891      106.59784    
   3913000   186.38358     -18059.624     -116.55525    
   3914000   179.86358     -18065.435      459.72982    
   3915000   172.11677     -18088.089      178.40996    
   3916000   175.79384     -18067.399      407.91793    
   3917000   176.88306     -18041.536      362.81705    
   3918000   177.16983     -18101.493     -48.287745    
   3919000   175.59707     -18073.42       94.253071    
   3920000   173.8613      -18060.734      464.83211    
   3921000   178.5385      -18012.166      762.60786    
   3922000   188.76179     -18006.953      537.83284    
   3923000   187.38279     -18040.756      705.57957    
   3924000   179.97779     -18061.162      229.94958    
   3925000   178.36017     -18066.001      82.605045    
   3926000   181.38543     -18074.831      351.92893    
   3927000   182.43219     -18042.882      372.21201    
   3928000   176.65628     -18053.895      256.43888    
   3929000   180.42209     -18077.911      553.81582    
   3930000   171.38095     -18050.003      266.26285    
   3931000   170.4001      -18105.529      158.56364    
   3932000   179.6141      -18114.13       77.458956    
   3933000   178.19045     -18044.347      130.79321    
   3934000   186.97489     -18041.259      383.48272    
   3935000   172.79015     -18138.363      59.165447    
   3936000   181.10398     -18053.797      567.99489    
   3937000   182.22762     -18047.728      912.07216    
   3938000   178.90372     -18080.099      335.42493    
   3939000   175.08969     -18110.018      102.00007    
   3940000   181.3632      -18073.482      584.47787    
   3941000   177.93563     -18057.973      418.34511    
   3942000   183.19885     -18058.507      814.50134    
   3943000   180.22333     -18077.219      159.39634    
   3944000   178.17347     -18050.26       733.84346    
   3945000   181.57616     -18037.139      439.93202    
   3946000   177.38764     -18058.148      643.59061    
   3947000   178.01068     -18082.366      645.72538    
   3948000   173.66629     -18085.201      430.71027    
   3949000   179.03177     -18058.064      558.26002    
   3950000   186.55417     -18030.1        681.38527    
   3951000   182.44541     -18029.236      810.85988    
   3952000   173.12306     -18051.976      800.31124    
   3953000   166.23406     -18060.38       235.11297    
   3954000   181.07426     -18069.402      175.9153     
   3955000   177.16105     -18084.002     -190.59567    
   3956000   179.31613     -18088.968      58.829649    
   3957000   183.32923     -18048.702      25.644307    
   3958000   189.73549     -18018.656      105.31873    
   3959000   186.9555      -18016.862      224.18609    
   3960000   173.45123     -18088.769      565.00962    
   3961000   171.46644     -18084.65       437.20884    
   3962000   176.54337     -18038.128      560.11379    
   3963000   185.22176     -18060.89       814.26396    
   3964000   174.1556      -18075.284      709.12046    
   3965000   170.08644     -18109.756      466.24074    
   3966000   172.87443     -18067.703      1049.1244    
   3967000   179.59057     -18045.024      959.42137    
   3968000   179.6149      -18043.182      476.60727    
   3969000   187.97385     -18016.356      613.78685    
   3970000   178.66287     -18054.26       778.34032    
   3971000   171.31382     -18061.205      340.92073    
   3972000   183.30273     -18039.643      250.38965    
   3973000   171.43518     -18073.463      541.27664    
   3974000   170.71244     -18092.914      217.28528    
   3975000   183.10032     -18077.231      444.39046    
   3976000   185.92904     -18059.912      771.20117    
   3977000   175.42756     -18080.208      787.93236    
   3978000   170.53644     -18092.871      367.69596    
   3979000   181.56859     -18066.574      545.4649     
   3980000   186.12097     -18033.114      176.15989    
   3981000   177.35515     -18053.445      734.51074    
   3982000   176.15735     -18064.818      880.19769    
   3983000   176.84988     -18106.304      350.84873    
   3984000   179.11279     -18088.212      660.80612    
   3985000   184.27481     -18061.376      569.20606    
   3986000   181.13094     -18050.792      477.7312     
   3987000   174.2991      -18083.752      425.25346    
   3988000   182.36543     -18056.184      501.86936    
   3989000   181.6885      -18010.435      574.08282    
   3990000   181.39124     -18087.725      546.21568    
   3991000   182.19265     -18089.511      223.06251    
   3992000   173.3422      -18101.951      341.92373    
   3993000   182.34893     -18063.109      420.91867    
   3994000   186.45442     -18069.953      11.188329    
   3995000   170.76368     -18098.512      371.0851     
   3996000   182.96849     -18074.349      629.38402    
   3997000   194.47852     -18003.749      961.2095     
   3998000   186.2585      -18087.544      218.40489    
   3999000   175.89811     -18071.276      654.50292    
   4000000   187.42365     -17992.849      593.62615    
   4001000   184.03402     -18048.242      770.69416    
   4002000   178.6287      -18081.97       447.4698     
   4003000   169.88718     -18080.166      709.50268    
   4004000   180.07141     -18045.993      537.62446    
   4005000   169.02447     -18070.765      873.73861    
   4006000   171.35138     -18094.21       722.62024    
   4007000   178.10331     -18078.628      462.02658    
   4008000   175.92399     -18030.374      893.51823    
   4009000   178.11422     -18063.302      1134.4516    
   4010000   175.8641      -18060.618      900.59601    
   4011000   182.3175      -18066.464      974.21822    
   4012000   178.30733     -18031.478      1172.5157    
   4013000   179.54655     -18041.502      794.82356    
   4014000   175.13291     -18078.818      189.65366    
   4015000   182.08553     -18049.431      730.66448    
   4016000   184.8947      -18043.076      1016.7624    
   4017000   170.73959     -18089.481      636.96234    
   4018000   176.32524     -18093.24       471.59129    
   4019000   173.83198     -18070.224      855.69925    
   4020000   184.43346     -18058.836     -7.4824229    
   4021000   187.76824     -18028.601      473.93959    
   4022000   173.8372      -18079.327      606.17834    
   4023000   177.02642     -18091.117      494.36412    
   4024000   176.06165     -18072.332      735.76647    
   4025000   181.46155     -18037.864      801.07242    
   4026000   172.13442     -18060.643      435.48855    
   4027000   168.99503     -18089.945      441.38388    
   4028000   176.29327     -18063.487      493.50404    
   4029000   180.49698     -18007.775      887.62857    
   4030000   184.72594     -18035.061      609.58584    
   4031000   174.88376     -18074.148      293.35942    
   4032000   171.59335     -18078.073      651.89799    
   4033000   189.58148     -18007.617      641.81924    
   4034000   174.82477     -18017.64       721.58061    
   4035000   182.53811     -18041.499      499.8275     
   4036000   174.47054     -18070.607      471.8592     
   4037000   188.91437     -18031.588      778.34371    
   4038000   183.5854      -18008.739      1073.4294    
   4039000   189.83838     -18045.082      487.62445    
   4040000   178.64521     -18056.285      505.56965    
   4041000   179.23321     -18044.152      576.53831    
   4042000   185.4661      -18069.264      618.16092    
   4043000   175.27009     -18055.006      704.97031    
   4044000   181.12856     -18041.338      533.90588    
   4045000   170.35304     -18075.595      566.34042    
   4046000   181.94902     -18054.862      956.07156    
   4047000   179.77241     -18072.737      585.50555    
   4048000   179.30605     -18051.634      498.16523    
   4049000   179.0369      -18074.064      624.5054     
   4050000   168.83524     -18118.019      490.42685    
   4051000   174.78102     -18069.176      413.69295    
   4052000   185.88107     -18049.864      696.97144    
   4053000   173.47745     -18128.432      691.10892    
   4054000   181.26934     -18094.389      318.38846    
   4055000   180.05847     -18079.616      384.87255    
   4056000   176.25545     -18059.089      1145.3667    
   4057000   185.48739     -18056.022      745.11633    
   4058000   173.66694     -18081.674      770.02842    
   4059000   172.98759     -18080.867      441.29741    
   4060000   173.64282     -18059.83       320.0896     
   4061000   182.76846     -18043.689      604.95031    
   4062000   173.73458     -18079.158      731.55664    
   4063000   176.92801     -18093.563      422.00622    
   4064000   176.87231     -18068.706      422.11147    
   4065000   185.63625     -18033.341      499.1393     
   4066000   182.4219      -18053.37       862.24607    
   4067000   175.7446      -18110.54       608.69866    
   4068000   172.51035     -18095.318      732.67661    
   4069000   171.51016     -18050.711      551.71444    
   4070000   190.44182     -18041.464      524.18642    
   4071000   184.17789     -18018.379      839.94184    
   4072000   175.07312     -18064.468      980.89499    
   4073000   173.43415     -18085.41       632.55466    
   4074000   165.29536     -18114.922      1012.6207    
   4075000   178.90795     -18094.64       290.61227    
   4076000   175.63201     -18053.626      908.39716    
   4077000   171.47832     -18075.174      443.93516    
   4078000   171.5889      -18094.07       668.62284    
   4079000   178.64694     -18079.232      446.10741    
   4080000   172.92536     -18078.304      437.41092    
   4081000   181.06636     -18011.726      1143.4294    
   4082000   185.35473     -18033.098      1007.5313    
   4083000   177.32765     -18074.025      383.76623    
   4084000   171.13395     -18078.979      852.80817    
   4085000   170.03883     -18085.801      803.94811    
   4086000   173.06631     -18112.797      438.71467    
   4087000   180.65987     -18063.905      734.85235    
   4088000   173.49355     -18055.03       464.82068    
   4089000   174.31693     -18103.465      436.96487    
   4090000   160.0972      -18073.479      358.31401    
   4091000   173.87748     -18054.665      1187.5883    
   4092000   179.67463     -18012.297      1042.2231    
   4093000   184.67853     -18041.997      468.44704    
   4094000   178.67481     -18070.04       599.09182    
   4095000   179.93868     -18067.09       396.29019    
   4096000   184.90599     -18027.505      405.17888    
   4097000   185.25849     -18047.848      852.69915    
   4098000   172.30039     -18086.374      737.1375     
   4099000   176.37182     -18050.566      740.21153    
   4100000   178.5693      -18046.52       825.82802    
   4101000   169.74071     -18101.729      689.61584    
   4102000   176.1165      -18093.59       810.02791    
   4103000   170.36296     -18087.239      779.08715    
   4104000   181.57836     -18066.297      727.4336     
   4105000   170.00081     -18102.643      340.31969    
   4106000   170.12374     -18091.184      688.28505    
   4107000   175.96529     -18058.808      894.0145     
   4108000   176.28153     -18074.102      484.99182    
   4109000   172.15776     -18106.486      592.50342    
   4110000   174.86499     -18090.254      513.99237    
   4111000   184.66597     -18024.762      925.9149     
   4112000   180.18155     -18042.804      668.56221    
   4113000   174.12264     -18112.961      592.90968    
   4114000   181.02491     -18064.438      704.72061    
   4115000   176.38203     -18047.365      1085.4997    
   4116000   168.23778     -18123.229      528.44444    
   4117000   180.59484     -18087.262      191.57491    
   4118000   181.6109      -18050.091      489.0035     
   4119000   183.74399     -18039.491      364.88435    
   4120000   185.72074     -18037.742      729.99301    
   4121000   195.64689     -18025.831      1094.9387    
   4122000   174.5003      -18076.514      781.60829    
   4123000   176.54666     -18091.209      634.53034    
   4124000   172.53153     -18103.394      273.96238    
   4125000   179.31316     -18058.186      1109.5219    
   4126000   180.3657      -18062.284      620.57103    
   4127000   173.21563     -18080.533      414.4674     
   4128000   171.51132     -18087.566      330.48558    
   4129000   183.59638     -18073.542      697.48158    
   4130000   179.00954     -18030.118      639.99142    
   4131000   171.35818     -18076.821      790.11062    
   4132000   177.97795     -18103.913      748.32809    
   4133000   188.12728     -18059.708      453.20339    
   4134000   178.86868     -18054.015      1022.9838    
   4135000   174.79204     -18102.168      666.89603    
   4136000   175.49339     -18068.875      914.25991    
   4137000   190.5144      -18039.282      884.35904    
   4138000   179.64007     -18053.559      921.45137    
   4139000   175.29018     -18079.359      502.54166    
   4140000   178.34885     -18099.004      368.63574    
   4141000   177.7792      -18060.042      841.91816    
   4142000   190.0866      -17990.417      601.1504     
   4143000   175.06735     -18096.8        544.48312    
   4144000   184.9323      -18068.109      331.25939    
   4145000   175.76969     -18055.136      1134.2296    
   4146000   171.93171     -18061.644      972.92086    
   4147000   173.00157     -18093.326      758.97175    
   4148000   178.10255     -18094.846      544.04569    
   4149000   184.57574     -18063.875      669.50596    
   4150000   175.8081      -18042.79       485.48047    
   4151000   178.51035     -18098.279      721.6914     
   4152000   172.53392     -18095.059      307.58516    
   4153000   178.23226     -18057.276      418.38819    
   4154000   173.97911     -18069.046      953.62601    
   4155000   177.6708      -18093.23       497.63052    
   4156000   170.62521     -18098.867      627.92575    
   4157000   181.46442     -18066.067      522.19623    
   4158000   184.18126     -18063.124      284.48434    
   4159000   173.25564     -18098.991      841.44539    
   4160000   175.51193     -18109.14       535.41712    
   4161000   182.02546     -18048.63       587.74077    
   4162000   166.62681     -18064.319      452.55808    
   4163000   172.63258     -18091.547      341.27281    
   4164000   172.52084     -18056.389      1027.5785    
   4165000   178.74849     -18053.123      394.26198    
   4166000   171.88293     -18081.009      656.44286    
   4167000   170.30442     -18081.027      909.35741    
   4168000   177.59452     -18078.573      891.92646    
   4169000   181.50286     -18020.246      765.77571    
   4170000   175.5661      -18076.512      822.29848    
   4171000   171.91245     -18092.626      501.96618    
   4172000   191.09442     -17964.258      1157.816     
   4173000   173.38629     -18091.369      530.13999    
   4174000   177.95778     -18073.076      774.93671    
   4175000   180.7181      -18079.409      435.20161    
   4176000   179.36407     -18096.06       3.1756831    
   4177000   179.88122     -18085.977      441.24557    
   4178000   181.92669     -18048.033      719.42571    
   4179000   178.92696     -18082.43       514.96939    
   4180000   171.36978     -18102.293      452.6744     
   4181000   181.23119     -18111.401      193.64412    
   4182000   176.14273     -18096.958      583.97951    
   4183000   188.02845     -18052.256      1000.3887    
   4184000   188.65614     -18065.791      541.6927     
   4185000   169.27983     -18122.223      602.09747    
   4186000   168.52695     -18122.778      194.15169    
   4187000   184.10051     -18055.31       686.67441    
   4188000   176.01419     -18046.172      890.36553    
   4189000   179.68851     -18031.965      857.84047    
   4190000   172.17767     -18079.95       176.71969    
   4191000   171.17222     -18089.25       574.4707     
   4192000   176.53052     -18057.733      799.97304    
   4193000   182.442       -18007.401      724.8645     
   4194000   174.43796     -18098.047      560.42706    
   4195000   186.04214     -18066.879      405.74601    
   4196000   182.75754     -18075.374      670.99438    
   4197000   177.88838     -18091.957      932.48992    
   4198000   168.5233      -18090.133      673.7117     
   4199000   171.05285     -18108.269      62.281793    
   4200000   173.10864     -18093.18       268.48514    
   4201000   181.33777     -18081.137      700.8986     
   4202000   183.36728     -18035.362      657.80475    
   4203000   172.96934     -18060.643      573.68717    
   4204000   187.25433     -18057.416      773.26427    
   4205000   173.89198     -18070.076      267.82183    
   4206000   174.43564     -18077.76       955.53579    
   4207000   180.0557      -18095.85       364.65183    
   4208000   180.65411     -18032.43       1007.5167    
   4209000   182.07778     -18017.276      786.69017    
   4210000   178.76581     -18068.678      278.42296    
   4211000   189.51592     -18053.1        454.3539     
   4212000   166.88091     -18075.898      942.56924    
   4213000   169.71633     -18092.276      656.42904    
   4214000   163.1147      -18091.622      1089.4306    
   4215000   173.51825     -18049.757      963.62937    
   4216000   174.73205     -18046.592      653.27644    
   4217000   178.95355     -18040.848      576.98288    
   4218000   171.44297     -18065.041      466.97138    
   4219000   164.199       -18088.34       450.09256    
   4220000   177.61509     -18042.387      889.82705    
   4221000   184.552       -18022.462      1028.2623    
   4222000   181.59833     -18055.691      505.1577     
   4223000   165.81489     -18101.182      706.91828    
   4224000   178.12328     -18088.652      608.31082    
   4225000   175.98878     -18039.095      741.76661    
   4226000   183.86526     -18030.785      600.42601    
   4227000   181.95718     -18009.354      751.22509    
   4228000   176.52897     -18049.538      653.91103    
   4229000   177.56049     -18059.582      1110.9619    
   4230000   177.87397     -18056.363      887.67763    
   4231000   183.17042     -18046.453      480.8486     
   4232000   179.16937     -18036.786      434.25403    
   4233000   177.84831     -18072.226      555.19771    
   4234000   176.84471     -18022.603      276.91331    
   4235000   190.08473     -18014.92       143.53451    
   4236000   179.76482     -18026.113      1212.8537    
   4237000   172.67301     -18044.926      753.6307     
   4238000   169.50621     -18039.458      1428.826     
   4239000   182.10201     -18068.953      455.14827    
   4240000   179.0941      -18041.517      446.35065    
   4241000   180.62274     -18017.378      761.82091    
   4242000   178.1655      -18070.077      402.07056    
   4243000   183.57926     -18032.24       638.81532    
   4244000   178.29375     -18035.385      1091.2076    
   4245000   179.3075      -18060.949      750.0644     
   4246000   164.9811      -18127.863      297.67242    
   4247000   185.91077     -18042.293      770.18267    
   4248000   180.13054     -18051.383      590.53573    
   4249000   177.55633     -18078.815      101.35921    
   4250000   169.71603     -18088.351      943.92432    
   4251000   178.51013     -18059.316      536.69311    
   4252000   193.40337     -18001.976      378.64755    
   4253000   177.80402     -18055.801      507.57012    
   4254000   169.9187      -18073.164      659.84474    
   4255000   175.37988     -18097.854      501.32381    
   4256000   173.10196     -18042.851      900.27825    
   4257000   170.82509     -18107.237      236.91568    
   4258000   169.00655     -18091.241      307.22179    
   4259000   178.69722     -18033.976      678.04352    
   4260000   172.73679     -18058.315      268.60481    
   4261000   176.08611     -18070.116      327.84403    
   4262000   178.62688     -18030.982      628.88983    
   4263000   178.9492      -18075.12       687.43534    
   4264000   165.74668     -18087.233      933.07714    
   4265000   175.08817     -18067.382      584.50055    
   4266000   173.77212     -18046.989      1075.9591    
   4267000   190.83435     -18029.048      925.05831    
   4268000   190.82392     -17987.735      429.92387    
   4269000   176.82931     -18060.159      431.44746    
   4270000   172.10724     -18074.543      679.16787    
   4271000   185.72538     -18043.304      1078.6293    
   4272000   174.179       -18043.34       885.1876     
   4273000   169.29676     -18088.005      667.82313    
   4274000   175.78615     -18087.541      527.35277    
   4275000   183.2815      -18050.777      969.67308    
   4276000   177.92858     -18073.812      754.56181    
   4277000   171.85396     -18114.148      602.17303    
   4278000   165.26353     -18133.539      547.1426     
   4279000   179.64547     -18046.502      544.90835    
   4280000   171.74747     -18098.827      625.3722     
   4281000   173.33994     -18073.122      779.99436    
   4282000   177.00611     -18054.644      1217.071     
   4283000   185.17731     -18020.87       1381.9639    
   4284000   172.56436     -18070.019      1543.3697    
   4285000   178.51642     -18053.734      409.69077    
   4286000   178.35232     -18059.229      1328.2232    
   4287000   177.72817     -18064.362      1196.8809    
   4288000   174.95437     -18054.888      1101.4865    
   4289000   166.03614     -18092.695      809.8181     
   4290000   170.36723     -18104.853      861.21501    
   4291000   181.12594     -18041.227      1187.2816    
   4292000   180.8746      -18036.709      947.67353    
   4293000   178.41159     -18083.833      681.98012    
   4294000   181.73884     -18018.361      1541.5535    
   4295000   185.28593     -18007.945      1501.7156    
   4296000   177.41626     -18063.2        608.39625    
   4297000   174.02386     -18076.365      771.81816    
   4298000   169.55722     -18048.309      903.50913    
   4299000   182.25914     -18033.719      934.38847    
   4300000   171.45677     -18044.006      1114.0785    
   4301000   178.41725     -18056.603      640.99292    
   4302000   178.52425     -18062.898      730.9028     
   4303000   181.29737     -17976.734      1125.8009    
   4304000   193.32378     -17990.398      1305.9027    
   4305000   178.68415     -18032.308      1096.7529    
   4306000   176.32391     -18058.445      1522.786     
   4307000   183.61076     -18039.003      812.23736    
   4308000   186.14103     -18044.349      963.0734     
   4309000   172.10472     -18017.487      1110.3789    
   4310000   190.41946     -17972.076      1342.4593    
   4311000   180.99913     -18034.108      1046.9185    
   4312000   170.18744     -18055.824      1313.5212    
   4313000   171.85652     -18034.889      980.43329    
   4314000   183.65616     -18007.348      1348.6299    
   4315000   187.37672     -17995.285      1251.6073    
   4316000   186.71456     -17988.274      1155.5797    
   4317000   176.89608     -18048.191      941.68575    
   4318000   170.89729     -18050.547      969.05995    
   4319000   188.18807     -17978.77       1585.0414    
   4320000   178.36656     -17991.666      1542.2458    
   4321000   183.26932     -18036.728      1535.6699    
   4322000   186.25993     -17996.854      1219.2473    
   4323000   168.79374     -18013.707      1715.8919    
   4324000   173.78149     -18040.256      1309.2532    
   4325000   174.67394     -18061.482      930.88288    
   4326000   178.83024     -18030.306      1332.6344    
   4327000   195.97547     -18002.8        765.38036    
   4328000   186.38869     -18031.228      1261.7744    
   4329000   167.48023     -18061.085      1520.8769    
   4330000   172.88074     -18066.604      1716.4854    
   4331000   177.47485     -18026.093      1699.4156    
   4332000   189.8597      -18012.367      1430.1488    
   4333000   177.36047     -18042.05       1105.1802    
   4334000   167.1157      -18062.64       1559.4176    
   4335000   177.4234      -18038.022      1295.2524    
   4336000   182.90757     -18015.771      1338.4054    
   4337000   178.24623     -18014.74       1222.6871    
   4338000   183.61034     -18003.787      1382.1706    
   4339000   177.04123     -18099.989      927.75213    
   4340000   179.90777     -18034.858      1055.8494    
   4341000   178.37142     -18034.638      1291.92      
   4342000   176.11099     -18038.621      934.528      
   4343000   176.18827     -18088.384      662.03038    
   4344000   177.85946     -18042.62       872.70537    
   4345000   176.8364      -18038.244      1185.2906    
   4346000   175.02506     -18026.517      1419.9714    
   4347000   172.67321     -18069.98       1238.8571    
   4348000   177.58798     -18080.46       1002.1014    
   4349000   178.92977     -18021.087      1405.5427    
   4350000   183.53178     -18010.888      1356.056     
   4351000   163.31902     -18091.887      793.13647    
   4352000   173.98291     -18067.91       871.41053    
   4353000   184.80618     -18028.268      1140.6894    
   4354000   176.46332     -18038.274      1302.4258    
   4355000   168.64059     -18055.474      1351.822     
   4356000   161.51391     -18089.677      779.8977     
   4357000   179.42303     -18020.883      1449.5232    
   4358000   177.50251     -18030.082      1378.3003    
   4359000   182.45131     -18047.124      965.66669    
   4360000   172.32562     -18072.382      1107.9182    
   4361000   178.32352     -18045.325      1330.8691    
   4362000   184.63405     -18041.613      1190.6049    
   4363000   181.12937     -18003.494      1451.8134    
   4364000   187.93488     -18015.426      1011.1215    
   4365000   179.31398     -18039.773      1230.3679    
   4366000   173.8105      -18055.213      1386.0716    
   4367000   185.22505     -18015.406      1100.3529    
   4368000   190.7623      -17993.753      991.66985    
   4369000   187.23007     -18008.35       1337.6046    
   4370000   177.20466     -18052.403      944.40783    
   4371000   177.58274     -18063.303      1340.1495    
   4372000   178.03895     -18085.174      981.57589    
   4373000   186.3387      -17995.684      1312.6129    
   4374000   176.76793     -18044.571      955.82611    
   4375000   183.50692     -18020.263      1472.9054    
   4376000   179.56049     -17997.11       1167.3542    
   4377000   174.19853     -18027.375      1235.3519    
   4378000   176.02463     -18051.271      1307.8018    
   4379000   166.80302     -18078.578      1333.8342    
   4380000   175.86102     -18071.242      1019.378     
   4381000   185.49193     -18034.37       1104.3224    
   4382000   177.97389     -18027.608      1156.7104    
   4383000   177.88892     -18056.419      1296.867     
   4384000   166.70913     -18113.004      921.06774    
   4385000   177.03081     -18019.705      1322.4462    
   4386000   176.68486     -18034.422      1462.4276    
   4387000   182.51084     -18060.964      821.26028    
   4388000   186.92767     -18016.693      1115.648     
   4389000   182.65325     -18032.92       1259.1305    
   4390000   178.01226     -18039.407      1353.0444    
   4391000   180.4879      -18063.693      1266.0477    
   4392000   173.46887     -18059.925      1257.3155    
   4393000   175.9761      -18043.651      1246.5022    
   4394000   174.56426     -18016.045      2065.2727    
   4395000   188.19926     -17967.543      1417.1849    
   4396000   177.36492     -18048.311      1151.1757    
   4397000   170.89397     -18044.285      1134.0922    
   4398000   190.53065     -17989.181      1166.669     
   4399000   185.48127     -18049.01       1271.1066    
   4400000   177.80988     -18060.888      1633.632     
   4401000   181.92662     -17982.085      1275.8858    
   4402000   178.41045     -18014.35       1149.2429    
   4403000   180.98541     -18037.933      954.0993     
   4404000   173.66032     -18049.457      1360.4059    
   4405000   180.69004     -18027.717      1455.3567    
   4406000   187.69842     -17977.702      1170.8745    
   4407000   181.45446     -18034.666      1004.7559    
   4408000   172.93012     -18055.466      1566.8554    
   4409000   183.62166     -17998.863      1222.1374    
   4410000   178.73771     -18076.372      1209.2133    
   4411000   169.63226     -18067.257      1236.0823    
   4412000   177.72145     -18021.578      1138.6786    
   4413000   171.49858     -18031.104      1546.801     
   4414000   175.10144     -18011.962      1202.8821    
   4415000   187.26324     -17975.765      1130.7716    
   4416000   180.47864     -18023.047      1205.8813    
   4417000   179.41483     -18041.648      1052.1501    
   4418000   168.71252     -18057.362      1464.1326    
   4419000   174.49069     -18050.351      1409.8322    
   4420000   180.48044     -18011.657      1643.2406    
   4421000   181.62668     -18002.876      1436.0501    
   4422000   179.17931     -18020.435      1592.8733    
   4423000   176.81684     -18033.28       1429.1778    
   4424000   170.76023     -18040.332      1534.38      
   4425000   180.69091     -18041.318      1152.4116    
   4426000   194.87999     -17971.402      1345.858     
   4427000   177.23373     -18004.175      1563.5026    
   4428000   179.50278     -18039.671      909.6527     
   4429000   180.53517     -18048.07       1542.232     
   4430000   180.71434     -18019.025      1251.1721    
   4431000   184.75277     -18032.706      928.96344    
   4432000   171.55837     -18069.646      859.23935    
   4433000   176.30051     -18043.599      749.31632    
   4434000   182.82632     -18008.148      900.18049    
   4435000   176.62347     -18026.956      1028.1609    
   4436000   172.61907     -18070.051      924.66861    
   4437000   169.68519     -18068.593      885.11282    
   4438000   177.35004     -18034.484      1126.0957    
   4439000   185.00252     -18016.159      821.60346    
   4440000   183.27443     -17988.506      1320.8626    
   4441000   184.57746     -18000.681      828.34188    
   4442000   177.91854     -18030.939      1430.3973    
   4443000   179.38289     -17998.437      1383.5134    
   4444000   173.54513     -18048.97       1103.5221    
   4445000   175.93115     -18010.134      1495.2655    
   4446000   186.63568     -17974.75       1163.7624    
   4447000   183.62401     -18011.158      730.11082    
   4448000   182.42997     -18023.672      977.42643    
   4449000   179.60563     -18012.286      1037.9838    
   4450000   188.50182     -17989.241      717.8607     
   4451000   180.2091      -18000.417      1215.9204    
   4452000   178.27624     -18006.701      1398.4209    
   4453000   171.29991     -18051.464      648.47322    
   4454000   181.3685      -18054.534      797.13201    
   4455000   185.9848      -17964.802      1400.7005    
   4456000   182.60298     -17995.609      1146.4786    
   4457000   175.68642     -18009.977      1848.5034    
   4458000   178.9327      -18055.099      767.69116    
   4459000   172.3231      -18094.593      887.57815    
   4460000   179.0415      -18017.513      1039.8971    
   4461000   178.97256     -18026.593      1335.1116    
   4462000   181.41544     -18055.262      995.44609    
   4463000   169.92271     -18035.678      1123.7375    
   4464000   179.99509     -18014.816      823.21732    
   4465000   178.16298     -18006.393      818.76395    
   4466000   173.7162      -18045.835      734.84462    
   4467000   179.60103     -18033.346      1123.842     
   4468000   182.02994     -17972.611      1301.8785    
   4469000   181.90684     -18020.654      1165.5369    
   4470000   169.93608     -18023.751      1183.4609    
   4471000   179.51973     -18003.911      1266.0242    
   4472000   169.85243     -17980.374      1155.4057    
   4473000   165.1999      -18045.383      525.5053     
   4474000   177.57487     -18013.163      1092.3467    
   4475000   187.37288     -17976.146      925.77031    
   4476000   184.33202     -17989.001      1096.8011    
   4477000   179.20396     -18012.782      565.8501     
   4478000   175.66687     -18039.395      770.91348    
   4479000   178.28487     -18033.561      733.48169    
   4480000   171.36468     -18006.927      562.88139    
   4481000   175.87187     -17985.928      1090.9281    
   4482000   183.192       -17940.908      1120.8369    
   4483000   187.77345     -17974.071      990.52887    
   4484000   180.38277     -18010.926      434.93957    
   4485000   178.23483     -18005.148      959.43639    
   4486000   184.83374     -17985.507      553.90116    
   4487000   189.19089     -17933.215      900.29279    
   4488000   180.07268     -18026.777      518.84976    
   4489000   177.97544     -18028.524      880.23931    
   4490000   171.78364     -18044.787      809.68693    
   4491000   178.1419      -18009.769      769.32891    
   4492000   167.05086     -18023.01       1038.5334    
   4493000   178.13265     -18002.792      756.47271    
   4494000   184.11105     -17996.118      960.84457    
   4495000   179.93816     -18013.541      738.79275    
   4496000   167.10022     -18066.077      994.69539    
   4497000   182.9031      -18026.431      1115.825     
   4498000   184.07886     -17978.135      640.92508    
   4499000   187.07806     -17995.309      571.76948    
   4500000   178.02432     -18039.816      697.32623    
   4501000   174.18611     -17991.144      1424.7054    
   4502000   181.01753     -17987.629      1189.8349    
   4503000   180.35096     -17969.33       965.07107    
   4504000   182.89514     -17992.937      1576.3438    
   4505000   170.87985     -18019.764      1095.6665    
   4506000   183.40672     -17990.288      1085.5093    
   4507000   177.47649     -17970.819      1096.6064    
   4508000   181.66264     -17964.273      1326.1768    
   4509000   187.43497     -17932.421      1133.2323    
   4510000   169.55105     -17990.985      1301.0643    
   4511000   176.20366     -17989.411      1203.7675    
   4512000   188.61344     -17994.788      918.80029    
   4513000   186.96168     -17969.297      335.77737    
   4514000   174.37597     -18052.857     -412.25627    
   4515000   177.70291     -18074.027     -370.50283    
   4516000   174.74809     -18110.751      84.820617    
   4517000   178.15268     -18109.279     -107.24437    
   4518000   180.73018     -18057.068      35.586162    
   4519000   173.92392     -18059.491     -7.4764368    
   4520000   174.48974     -18091.753      269.67012    
   4521000   173.55304     -18119.821     -504.31402    
   4522000   173.81513     -18076.023      708.77095    
   4523000   181.19076     -18050.326      177.36263    
   4524000   175.51908     -18135.189     -94.682525    
   4525000   178.38877     -18098.104     -175.2408     
   4526000   178.21126     -18093.965      0.4647475    
   4527000   174.82905     -18073.802      178.95272    
   4528000   183.53515     -18055.233      43.348197    
   4529000   177.31972     -18050.989     -159.90486    
   4530000   180.7866      -18025.516     -190.7743     
   4531000   177.3302      -18073.844      552.03699    
   4532000   181.15779     -18061.854      250.23609    
   4533000   178.81549     -18032.191      330.14058    
   4534000   176.95844     -18051.442      950.06987    
   4535000   172.78953     -18089.764      157.00275    
   4536000   187.18675     -18058.049     -383.06004    
   4537000   179.62411     -18054.043      35.122782    
   4538000   190.08633     -17994.853      324.10809    
   4539000   174.67795     -18069.51       217.43297    
   4540000   178.24307     -18076.908     -66.594461    
   4541000   176.32173     -18063.824     -405.7049     
   4542000   176.18092     -18111.122      256.48575    
   4543000   186.24821     -18088.647     -482.39922    
   4544000   180.65544     -18074.528     -113.46015    
   4545000   186.46194     -18016.668      374.4211     
   4546000   188.49962     -18041.591      219.59603    
   4547000   173.83782     -18072.56       144.24038    
   4548000   172.04638     -18103.043      312.9327     
   4549000   176.79835     -18082.422      257.4537     
   4550000   181.64845     -18068.726      30.68818     
   4551000   178.23803     -18074.862      197.88635    
   4552000   176.61216     -18090.672      43.27454     
   4553000   181.40911     -18049.909      51.501513    
   4554000   179.70585     -18065.992      32.823191    
   4555000   181.13483     -18087.938      46.078562    
   4556000   169.87775     -18109.398     -113.98629    
   4557000   183.55154     -18063.453      129.97534    
   4558000   184.03267     -18055.508     -205.75312    
   4559000   184.25767     -18052.432      261.75649    
   4560000   173.81211     -18095.719      90.045203    
   4561000   180.36034     -18105.589      49.088793    
   4562000   175.8118      -18096.379      17.54011     
   4563000   177.37591     -18054.054      333.40386    
   4564000   178.54694     -18076.104      136.80405    
   4565000   181.83501     -18088.197     -139.70799    
   4566000   171.87141     -18129.105      124.18527    
   4567000   169.61357     -18115.011     -239.09321    
   4568000   176.6241      -18107.72      -25.986482    
   4569000   166.00547     -18103.076      54.774694    
   4570000   182.92569     -18073.253     -6.7645484    
   4571000   177.02345     -18052.995      498.27842    
   4572000   172.96775     -18083.095      230.9722     
   4573000   180.36559     -18114.611     -111.31289    
   4574000   165.24663     -18151.416      341.91515    
   4575000   173.39921     -18069.615      125.78497    
   4576000   176.55559     -18098.608      5.0828313    
   4577000   175.6395      -18094.466      292.07648    
   4578000   173.84868     -18079.149      303.08798    
   4579000   184.44186     -18028.377      541.77818    
   4580000   171.96516     -18101.625      188.42617    
   4581000   176.43218     -18117.305     -496.53651    
   4582000   177.10454     -18086.583     -291.14741    
   4583000   181.57001     -18051.562      345.71945    
   4584000   184.48062     -18041.007      82.719072    
   4585000   171.47868     -18104.327     -485.84256    
   4586000   177.55661     -18110.884     -488.24414    
   4587000   172.10438     -18055.986      61.919403    
   4588000   178.76301     -18068.675     -239.50452    
   4589000   181.01086     -18073.769     -203.45474    
   4590000   175.39027     -18108.494      29.786818    
   4591000   175.44918     -18069.14      -288.31295    
   4592000   180.75058     -18040.689      170.51105    
   4593000   170.82164     -18073.819      125.2194     
   4594000   185.86549     -18049.837      47.407955    
   4595000   178.01435     -18098.806     -325.26135    
   4596000   180.23896     -18068.553     -82.14275     
   4597000   175.77962     -18056.454     -305.73431    
   4598000   168.62702     -18087.542      31.036305    
   4599000   169.46659     -18105.344     -354.43587    
   4600000   181.53016     -18077.402     -142.85896    
   4601000   187.62619     -18052.663     -214.17102    
   4602000   185.91125     -18047.961     -230.85025    
   4603000   183.69794     -18087.23      -63.55685     
   4604000   182.21308     -18128.879     -206.56836    
   4605000   165.06853     -18100.674      361.77326    
   4606000   176.92808     -18091.899      613.5992     
   4607000   175.61121     -18102.846     -349.83767    
   4608000   177.32043     -18131.359      0.88991876   
   4609000   173.55176     -18102.485     -139.89608    
   4610000   175.65131     -18087.858     -142.63177    
   4611000   173.36919     -18123.005      5.204036     
   4612000   178.67489     -18105.031      198.97217    
   4613000   173.78499     -18107.766      117.13952    
   4614000   173.12876     -18074.692      517.1412     
   4615000   164.76455     -18143.889     -124.03638    
   4616000   180.86669     -18081.715      170.85624    
   4617000   181.45337     -18085.888      264.70386    
   4618000   178.60198     -18070.756      238.32817    
   4619000   173.81667     -18096.574      489.61981    
   4620000   175.70551     -18119.927      162.97678    
   4621000   177.53731     -18097.973      210.06082    
   4622000   176.49017     -18086.954      301.83629    
   4623000   178.23077     -18110.456     -282.52424    
   4624000   164.17114     -18129.954      286.81615    
   4625000   182.83988     -18061.548      418.91649    
   4626000   172.15702     -18096.115     -155.95276    
   4627000   178.35546     -18110.059     -545.49357    
   4628000   173.5113      -18097.652      475.88015    
   4629000   194.93418     -17992.239      197.09172    
   4630000   170.03601     -18097.835      247.94609    
   4631000   173.84882     -18082.114      378.31107    
   4632000   173.0078      -18084.377      303.79688    
   4633000   177.41129     -18112.837     -227.87572    
   4634000   175.63114     -18081.364     -391.92675    
   4635000   187.33438     -18058.846     -32.809487    
   4636000   173.27321     -18048.532      459.84568    
   4637000   172.01921     -18079.228      280.63642    
   4638000   180.35998     -18014.151      503.89364    
   4639000   186.64501     -18041.483      193.60753    
   4640000   178.15125     -18053.315      415.33231    
   4641000   181.39206     -18095.652     -96.175025    
   4642000   178.75014     -18093.951      473.45479    
   4643000   178.80254     -18101.767     -192.82613    
   4644000   179.91044     -18059.114      514.5016     
   4645000   176.61998     -18067.794      179.51469    
   4646000   174.72617     -18111.371     -125.25736    
   4647000   172.5484      -18117.118      59.818619    
   4648000   176.44152     -18107.456      153.26039    
   4649000   180.91606     -18060.08       302.65019    
   4650000   186.45192     -18034.824      512.21452    
   4651000   175.8439      -18084.942      318.23304    
   4652000   175.22239     -18118.276      174.04962    
   4653000   174.74914     -18100.317      300.86122    
   4654000   177.16975     -18022.684      645.82233    
   4655000   185.10665     -18039.291      422.1269     
   4656000   177.61854     -18079.131      837.62097    
   4657000   177.79092     -18087.986      5.18468      
   4658000   180.91915     -18081.741      554.59975    
   4659000   181.90157     -18023.141      543.81767    
   4660000   175.44183     -18071.365      226.12347    
   4661000   179.74239     -18056.282     -120.82649    
   4662000   181.81227     -18047.079     -140.66719    
   4663000   176.66148     -18047.997     -13.586881    
   4664000   180.57244     -18066.738      129.15924    
   4665000   177.83954     -18082.701     -341.62684    
   4666000   171.39649     -18085.47      -18.34863     
   4667000   174.61126     -18098.205     -465.68858    
   4668000   175.44225     -18110.082     -123.45361    
   4669000   180.03303     -18076.002     -287.57504    
   4670000   189.69621     -18060.295     -295.55276    
   4671000   175.70548     -18094.369     -363.62112    
   4672000   179.47401     -18104.117     -714.9555     
   4673000   173.27797     -18067.304      182.55347    
   4674000   184.27268     -18074.755     -699.61854    
   4675000   186.18758     -18051.071     -613.54777    
   4676000   175.60124     -18071.355     -271.36888    
   4677000   177.07737     -18050.257      167.56356    
   4678000   179.70821     -18023.96      -118.54324    
   4679000   184.39293     -18060.407     -155.80426    
   4680000   182.95369     -18075.481     -262.664      
   4681000   179.56674     -18065.385      24.703715    
   4682000   179.3871      -18032.748      190.12627    
   4683000   189.64175     -18079.549     -446.51264    
   4684000   174.54505     -18109.983     -443.90844    
   4685000   173.39805     -18085.943     -425.0859     
   4686000   177.89479     -18059.87       54.313521    
   4687000   172.30987     -18112.148     -93.747705    
   4688000   168.36715     -18094.523     -54.223342    
   4689000   171.90671     -18082.002      100.87482    
   4690000   185.7583      -18025.942      236.64886    
   4691000   190.03143     -18020.077      422.17457    
   4692000   180.94081     -18090.599      91.097026    
   4693000   174.35791     -18083.834     -12.362566    
   4694000   180.6633      -18051.498      79.797677    
   4695000   186.36461     -18034.007     -4.6728664    
   4696000   172.61756     -18080.38       103.47615    
   4697000   179.31171     -18074.77       93.902969    
   4698000   175.71551     -18035.581      471.93353    
   4699000   177.82607     -18063.723      586.90592    
   4700000   177.37142     -18089.37      -154.43916    
   4701000   181.38754     -18065.295     -332.96315    
   4702000   178.06966     -18051.093      159.7538     
   4703000   178.82771     -18057.279      37.936152    
   4704000   173.48282     -18076.17       629.7233     
   4705000   186.17523     -18024.835      229.71816    
   4706000   182.48654     -18021.124      237.68065    
   4707000   180.99576     -18079.287     -254.87402    
   4708000   171.75596     -18083.911     -386.6254     
   4709000   171.26482     -18125.502     -174.06548    
   4710000   177.35375     -18059.413     -257.99592    
   4711000   180.05986     -18041.687      271.47492    
   4712000   182.0311      -18092.653      114.93218    
   4713000   175.71948     -18101.161     -254.73763    
   4714000   172.85452     -18055.61       330.05285    
   4715000   179.58951     -18084.81      -150.37739    
   4716000   182.47859     -18053.037      255.93328    
   4717000   183.38417     -18073.767     -362.30535    
   4718000   182.27909     -18083.117      7.8678571    
   4719000   179.26596     -18091.897      382.97574    
   4720000   165.75705     -18127.059      23.771997    
   4721000   172.9022      -18136.607     -464.97369    
   4722000   176.20049     -18095.951      88.758837    
   4723000   181.77199     -18087.616      148.18835    
   4724000   179.6398      -18099.473     -302.50038    
   4725000   168.53052     -18134.053      2.1195882    
   4726000   167.13346     -18143.34      -117.59945    
   4727000   179.16399     -18077.936     -318.37851    
   4728000   171.85508     -18107.972     -105.86798    
   4729000   171.26519     -18084.89       42.678238    
   4730000   179.61629     -18081.296      297.00874    
   4731000   184.51429     -18047.092      122.30989    
   4732000   173.08139     -18065.964     -20.616864    
   4733000   177.98541     -18089.26      -277.73232    
   4734000   172.76517     -18094.737     -189.17416    
   4735000   183.30739     -18084.333      161.23948    
   4736000   189.83989     -18034.12       559.39062    
   4737000   180.96868     -18105.831     -245.53445    
   4738000   175.74519     -18123.077     -296.07653    
   4739000   180.78017     -18060.779     -581.18315    
   4740000   187.69063     -18074.507      183.47919    
   4741000   169.77851     -18101.113      254.99604    
   4742000   174.31417     -18110.329     -347.39887    
   4743000   183.04688     -18076.84      -31.565358    
   4744000   184.1005      -18041.747      540.80852    
   4745000   178.42038     -18084.068      95.300117    
   4746000   177.23903     -18106.916      55.236217    
   4747000   169.59983     -18130.107     -208.11905    
   4748000   166.08457     -18138.615     -69.053337    
   4749000   180.30434     -18084.107     -331.5265     
   4750000   168.2342      -18129.554     -58.938564    
   4751000   181.44672     -18094.81      -126.12993    
   4752000   180.91276     -18082.766     -441.4912     
   4753000   178.9856      -18054.405      633.86919    
   4754000   194.35517     -18048.518     -282.72613    
   4755000   173.65063     -18116.218      182.51756    
   4756000   175.39142     -18103.519     -410.93881    
   4757000   189.80409     -18029.291     -20.610731    
   4758000   190.03749     -18051.518     -154.9657     
   4759000   182.39681     -18092.276     -187.62919    
   4760000   180.3376      -18065.465      132.4689     
   4761000   182.92548     -18128.246     -490.15528    
   4762000   175.11256     -18123.12      -102.87533    
   4763000   177.42458     -18089.971      60.547573    
   4764000   176.3065      -18072.061      446.9577     
   4765000   180.31455     -18030.808      353.81364    
   4766000   182.66675     -18076.915     -376.59912    
   4767000   174.45824     -18103.471      334.80867    
   4768000   173.67956     -18110.913      191.93442    
   4769000   184.77558     -18063.009     -292.41646    
   4770000   179.49472     -18075.375     -350.78863    
   4771000   183.35452     -18118.073     -479.70188    
   4772000   176.96644     -18123.481      125.91951    
   4773000   178.32221     -18108.072      176.47878    
   4774000   180.03285     -18056.856     -133.84221    
   4775000   178.90776     -18104.601     -329.35373    
   4776000   172.84987     -18115.347      140.37278    
   4777000   174.68713     -18112.063     -435.493      
   4778000   186.54273     -18078.03      -414.52796    
   4779000   188.08619     -18027.226     -196.94702    
   4780000   177.6055      -18097.745     -419.83585    
   4781000   170.61829     -18101.545     -166.35451    
   4782000   184.56063     -18086.528     -42.572604    
   4783000   186.02173     -18070.566     -304.3237     
   4784000   174.93199     -18081.521      168.41293    
   4785000   171.03673     -18107.447      188.20437    
   4786000   187.38278     -18038.537     -47.261574    
   4787000   180.05512     -18094.015     -399.67933    
   4788000   180.99429     -18104.728     -13.150117    
   4789000   180.55326     -18128.684     -528.33996    
   4790000   171.42474     -18130.611     -37.562113    
   4791000   171.26609     -18096.503      260.96246    
   4792000   182.68872     -18095.683     -201.68806    
   4793000   169.76373     -18066.015      604.56308    
   4794000   182.0858      -18043.451      53.766722    
   4795000   186.29068     -18089.577     -137.05407    
   4796000   175.77331     -18084.404     -247.27154    
   4797000   177.97827     -18098.054     -19.103488    
   4798000   174.55884     -18135.663      45.978048    
   4799000   174.17455     -18080.093     -273.95069    
   4800000   184.42596     -18070.595      271.49929    
   4801000   178.80367     -18082.308     -286.75149    
   4802000   170.55854     -18106.899     -178.79272    
   4803000   169.64417     -18098.837      42.442246    
   4804000   172.37061     -18077.943     -75.996814    
   4805000   178.14332     -18064.048     -155.56428    
   4806000   183.56879     -18077.446     -1.5560568    
   4807000   183.27882     -18098.606     -80.162753    
   4808000   172.89941     -18085.875     -139.58027    
   4809000   189.71864     -18059.119      68.638291    
   4810000   181.02768     -18077.326     -177.31169    
   4811000   174.18012     -18100.113     -101.21348    
   4812000   174.22251     -18128.101     -261.33467    
   4813000   180.23904     -18081.795     -33.858968    
   4814000   182.42159     -18071.612     -133.52638    
   4815000   176.65411     -18098.985      334.85082    
   4816000   172.21252     -18152.942      300.77335    
   4817000   177.68958     -18084.485      64.158289    
   4818000   179.95271     -18072.621     -77.714443    
   4819000   177.44271     -18086.652     -160.26613    
   4820000   178.51322     -18109.402      94.47199     
   4821000   166.4718      -18115.125     -381.15611    
   4822000   174.19598     -18112.607     -109.85814    
   4823000   183.22645     -18082.632      247.95298    
   4824000   182.74759     -18015.716     -110.11487    
   4825000   175.65406     -18124.136     -540.85287    
   4826000   181.19571     -18072.949      151.86374    
   4827000   182.00961     -18080.429     -571.0787     
   4828000   173.41788     -18075.703      472.61401    
   4829000   176.83203     -18106.91      -261.37088    
   4830000   171.42285     -18130.524      48.659534    
   4831000   172.23002     -18142.487     -454.69611    
   4832000   175.27079     -18069.021      51.295936    
   4833000   179.97348     -18076.867     -46.205046    
   4834000   171.26886     -18118.237     -576.81227    
   4835000   165.85592     -18144.216     -644.22813    
   4836000   178.78332     -18094.693      238.14507    
   4837000   178.57402     -18073.663     -360.31832    
   4838000   173.4509      -18101.906      119.92479    
   4839000   172.25638     -18136.443     -348.36259    
   4840000   176.96053     -18108.443      192.51799    
   4841000   180.11207     -18088.673      140.61484    
   4842000   184.76762     -18066.967      24.988837    
   4843000   181.33409     -18072.175      44.030805    
   4844000   174.27302     -18073.567      175.24654    
   4845000   173.46025     -18120.86      -167.95629    
   4846000   172.85266     -18123.462      262.37123    
   4847000   177.33154     -18091.017     -173.92834    
   4848000   172.22353     -18090.265     -110.39013    
   4849000   175.98956     -18048.403      345.6602     
   4850000   186.53382     -18052.658      57.257353    
   4851000   175.7612      -18078.782      110.50074    
   4852000   178.58781     -18101.889      55.709049    
   4853000   177.11476     -18087.927     -513.03151    
   4854000   179.50795     -18045.447      577.08087    
   4855000   185.52552     -18064.508     -229.78509    
   4856000   165.6192      -18107.812     -5.6829467    
   4857000   184.66428     -18099.978     -376.89937    
   4858000   177.35769     -18073.297     -9.5282982    
   4859000   183.68491     -18031.334      20.200486    
   4860000   169.55103     -18109.148      64.766568    
   4861000   181.6102      -18073.579     -265.03977    
   4862000   181.56521     -18074.154      495.18216    
   4863000   176.66252     -18086.856     -57.8715      
   4864000   188.42556     -18039.969      512.61034    
   4865000   182.84325     -18042.738      328.36736    
   4866000   179.40739     -18057.979      53.343291    
   4867000   184.55747     -18088.554     -275.65701    
   4868000   167.60605     -18150.113     -373.5026     
   4869000   167.81116     -18096.723     -136.04673    
   4870000   182.05068     -18080.199     -150.68196    
   4871000   171.85701     -18063.752      7.7575032    
   4872000   174.85911     -18101.355     -200.60816    
   4873000   180.35296     -18102.933     -227.58845    
   4874000   183.81132     -18049.166      210.64222    
   4875000   178.71138     -18091.858     -195.19181    
   4876000   184.01383     -18098.649     -414.01361    
   4877000   175.79202     -18063.208     -340.44196    
   4878000   189.25963     -18048.776     -9.5121751    
   4879000   172.7635      -18092.828     -24.584945    
   4880000   189.38099     -18062.022     -537.32947    
   4881000   183.97361     -18053.449      75.518153    
   4882000   186.27489     -18075.272     -783.73082    
   4883000   171.30638     -18094.121     -42.108707    
   4884000   172.2129      -18158.638     -489.10874    
   4885000   178.3073      -18090.298     -139.80495    
   4886000   181.59284     -18069.623     -5.627504     
   4887000   182.56804     -18054.445      286.22466    
   4888000   174.98207     -18088.329     -404.42162    
   4889000   176.40368     -18115.388     -210.30082    
   4890000   170.85996     -18140.602     -69.778924    
   4891000   182.214       -18065.653      117.27549    
   4892000   183.06361     -18054.251      277.55274    
   4893000   170.79046     -18145.714     -168.21025    
   4894000   175.92451     -18108.171     -55.354576    
   4895000   179.49166     -18089.805      14.274105    
   4896000   180.31777     -18057.537     -79.673961    
   4897000   174.36738     -18078.78      -159.38744    
   4898000   168.12588     -18100.916      26.773828    
   4899000   180.28927     -18061.221      172.2892     
   4900000   177.9469      -18056.538      527.77337    
   4901000   183.14829     -18092.747     -633.40156    
   4902000   178.88147     -18066.028     -250.09184    
   4903000   186.11959     -18048.226      290.99375    
   4904000   189.72944     -18019.052      415.12705    
   4905000   182.5474      -18049.696     -184.23737    
   4906000   185.82638     -18075.68      -354.9007     
   4907000   177.91098     -18096.865     -73.103204    
   4908000   175.21467     -18096.242      242.50626    
   4909000   181.17501     -18100.853      67.631147    
   4910000   183.9536      -18070.04       258.50289    
   4911000   178.5073      -18074.792     -57.749316    
   4912000   173.74127     -18086.472     -102.77506    
   4913000   178.48231     -18076.245     -149.15137    
   4914000   178.72858     -18093.413     -193.50166    
   4915000   170.99375     -18092.637     -126.25605    
   4916000   177.48296     -18066.068      140.92164    
   4917000   181.52374     -18054.063     -69.985975    
   4918000   176.53748     -18094.586      205.38312    
   4919000   165.29157     -18117.529     -31.275877    
   4920000   177.12098     -18085.838     -48.592658    
   4921000   194.35716     -18032.206      50.734233    
   4922000   179.17819     -18064.154      61.807294    
   4923000   176.4252      -18095.329     -377.93237    
   4924000   180.05751     -18112.891     -112.61371    
   4925000   188.0929      -18059.454     -195.18761    
   4926000   184.0356      -18048.789      105.70386    
   4927000   179.3749      -18093.92      -133.30378    
   4928000   180.91881     -18101.732      225.53839    
   4929000   180.47419     -18079.083      117.22203    
   4930000   184.38157     -18056.962      173.79156    
   4931000   180.06466     -18052.435     -161.03828    
   4932000   184.47637     -18084.103     -117.00523    
   4933000   173.11391     -18117.3       -59.044795    
   4934000   175.20961     -18113.281     -276.26782    
   4935000   179.71615     -18073.279      532.16191    
   4936000   179.0375      -18056.63      -8.2485691    
   4937000   164.9238      -18079.825      66.400394    
   4938000   179.25229     -18105.887     -252.33536    
   4939000   178.14522     -18077.988      15.78796     
   4940000   181.12891     -18068.658      293.07939    
   4941000   178.77441     -18079.492     -349.93752    
   4942000   176.6811      -18068.871      164.02047    
   4943000   177.10965     -18121.614     -188.98065    
   4944000   171.86896     -18088.982      54.111826    
   4945000   169.02075     -18116.847     -124.52725    
   4946000   172.7738      -18073.945     -37.307351    
   4947000   176.57635     -18102.429      324.93392    
   4948000   174.56356     -18144.633     -340.86628    
   4949000   177.84272     -18088.038      147.63873    
   4950000   176.2696      -18078.828      170.46141    
   4951000   175.15882     -18101.252      123.38176    
   4952000   172.03626     -18049.342      175.03263    
   4953000   190.38105     -18024.483      546.65369    
   4954000   179.48782     -18069.699     -52.768865    
   4955000   170.50807     -18088.346     -60.167355    
   4956000   182.77556     -18105.365     -344.74635    
   4957000   178.91686     -18078.365      191.55185    
   4958000   182.96862     -18044.765     -24.920458    
   4959000   193.99687     -18031.147      100.62967    
   4960000   175.81648     -18077.454      370.08781    
   4961000   178.31392     -18075.041      274.42569    
   4962000   178.49977     -18073.707      96.861154    
   4963000   183.28546     -18044.672     -11.785785    
   4964000   175.53051     -18093.531      140.38547    
   4965000   178.80364     -18103.201      71.369282    
   4966000   182.22396     -18083.917      261.68949    
   4967000   178.1625      -18052.714      431.57803    
   4968000   178.18257     -18060.957      182.08634    
   4969000   178.89786     -18098.517      77.310397    
   4970000   178.63592     -18076.646     -44.416303    
   4971000   191.23422     -18043.423     -342.91309    
   4972000   176.55262     -18067.011      307.93474    
   4973000   175.53854     -18085.08       156.2271     
   4974000   183.02796     -18093.59      -284.36565    
   4975000   180.52358     -18005.949      342.2711     
   4976000   174.48509     -18117.254      67.710037    
   4977000   179.72947     -18113.917     -241.2075     
   4978000   173.41068     -18086.33      -236.92901    
   4979000   173.6704      -18105.908      130.0329     
   4980000   180.52409     -18077.444     -19.17793     
   4981000   190.6196      -18057.85       237.9506     
   4982000   181.88323     -18074.256     -152.75814    
   4983000   177.31495     -18100.14       7.4344375    
   4984000   171.33047     -18129.749     -374.88108    
   4985000   174.45939     -18127.433     -76.547653    
   4986000   178.44905     -18091.84       75.906403    
   4987000   183.04823     -18090.43       90.486362    
   4988000   178.35028     -18116.007     -328.12786    
   4989000   165.87014     -18117.988     -200.21607    
   4990000   178.67649     -18115.75      -229.49284    
   4991000   191.57651     -18013.033      136.16448    
   4992000   181.04033     -18078.206     -398.21278    
   4993000   176.31027     -18088.48      -120.96209    
   4994000   180.52408     -18085.227      8.6488611    
   4995000   175.05815     -18109.888      5.9226984    
   4996000   181.73773     -18070.361      230.42754    
   4997000   178.74418     -18119.481     -397.78193    
   4998000   170.75186     -18105.763      179.07598    
   4999000   172.34825     -18082.298     -198.50348    
   5000000   179.91338     -18077.768     -574.25303    
Loop time of 6974.08 on 32 procs for 5000000 steps with 1196 atoms

Performance: 61.944 ns/day, 0.387 hours/ns, 716.941 timesteps/s, 857.461 katom-step/s
99.9% CPU use with 32 MPI tasks x 1 OpenMP threads

MPI task timing breakdown:
Section |  min time  |  avg time  |  max time  |%varavg| %total
---------------------------------------------------------------
Pair    | 0.43008    | 988.69     | 4682.9     |4881.8 | 14.18
Bond    | 0.34122    | 12.759     | 36.181     | 351.1 |  0.18
Kspace  | 1062.3     | 4691       | 5694       |2185.1 | 67.26
Neigh   | 240.67     | 243.85     | 251.39     |  18.6 |  3.50
Comm    | 317.52     | 514.82     | 646.74     | 404.5 |  7.38
Output  | 1.3581     | 3.0425     | 3.9568     |  63.2 |  0.04
Modify  | 366.02     | 490.77     | 685.15     | 516.3 |  7.04
Other   |            | 29.1       |            |       |  0.42

Nlocal:         37.375 ave         132 max           0 min
Histogram: 16 8 0 0 0 0 0 0 2 6
Nghost:        1630.53 ave        1782 max        1452 min
Histogram: 8 0 0 0 0 15 1 0 0 8
Neighs:        12704.2 ave       65068 max           0 min
Histogram: 24 0 0 0 1 2 1 2 0 2

Total # of neighbors = 406535
Ave neighs/atom = 339.91221
Ave special neighs/atom = 10.69398
Neighbor list builds = 176716
Dangerous builds = 0
Total wall time: 1:56:17
