LAMMPS (19 Nov 2024)
units           real
atom_style      full
dimension 3
boundary        p p p

read_data       ../model_solvation/sol_N10.data
Reading data file ...
  orthogonal box = (-0.2285 0.000499 0.000499) to (22.051501 35.0955 35.0955)
  1 by 1 by 1 MPI processor grid
  reading atoms ...
  1168 atoms
  scanning bonds ...
  6 = max bonds/atom
  scanning angles ...
  6 = max angles/atom
  orthogonal box = (-0.2285 0.000499 0.000499) to (22.051501 35.0955 35.0955)
  1 by 1 by 1 MPI processor grid
  reading bonds ...
  1325 bonds
  reading angles ...
  1086 angles
Finding 1-2 1-3 1-4 neighbors ...
  special bond factors lj:    0        0        0       
  special bond factors coul:  0        0        0       
     6 = max # of 1-2 neighbors
    15 = max # of 1-3 neighbors
    72 = max # of 1-4 neighbors
    30 = max # of special neighbors
  special bonds CPU = 0.001 seconds
  read_data CPU = 0.008 seconds

# Define groups
group water type 4 5 9     # 4 and 5 are H1 and H2 atoms, 9 is O atom
720 atoms in group water
group mos2  type 6 7 14 15 16 17     # MoS2 backbone
420 atoms in group mos2
group hcro  type 2 3 10 11 12 13     # HCrO4 ions
6 atoms in group hcro
group sol   type 1 2 3 4 5 8 9 10 11 12  13 # solvent and solution
748 atoms in group sol

# Pair style and kspace
pair_style      lj/cut/coul/long 10.0
special_bonds lj 0.0 0.0 0.5 coul 0.0 0.0 0.83333333
Finding 1-2 1-3 1-4 neighbors ...
  special bond factors lj:    0        0        0.5     
  special bond factors coul:  0        0        0.83333333
     6 = max # of 1-2 neighbors
    15 = max # of 1-3 neighbors
    72 = max # of 1-4 neighbors
    30 = max # of special neighbors
  special bonds CPU = 0.001 seconds
pair_modify     mix arithmetic
#kspace_style    pppm 1.0e-4
kspace_style ewald 1e-8

# Pair Coeff
pair_coeff 1 1     0.070   3.5600000   # Cl-Cl
pair_coeff 2 2     0.050   2.5000000   # CR-CR
pair_coeff 3 3     0.001   1.0000000   # H-H
pair_coeff 4 4     0.0     0.0         # H1-H1
pair_coeff 5 5     0.0     0.0         # H2-H2
pair_coeff 6 6     0.0134  4.2000000   # Mo1-Mo1
pair_coeff 7 7     0.0134  4.2000000   # Mo2-Mo2
pair_coeff 8 8     0.0469  2.4300000   # Na-Na
pair_coeff 9 9     0.1521  3.1507      # OW-OW
pair_coeff 10 10   0.1000  3.0000000   # O1-O1
pair_coeff 11 11   0.1000  3.0000000   # O2-O2
pair_coeff 12 12   0.1000  3.0000000   # O3-O3
pair_coeff 13 13   0.1000  3.0000000   # O4-O4
pair_coeff 14 14   0.4610  3.1300000   # S1-S1
pair_coeff 15 15   0.4610  3.1300000   # S2-S2
pair_coeff 16 16   0.4610  3.1300000   # S3-S3
pair_coeff 17 17   0.4610  3.1300000   # S4-S4

bond_style harmonic
bond_coeff 1 1000 2.4127               # Mo-S bond
bond_coeff 2 650 1.600                 # CR-O bond in HCRO4
bond_coeff 3 450 0.600                 # O-H bond  in HCRO4
bond_coeff 4 450 0.957                 # O-H bond  in water

angle_style     harmonic
angle_coeff 1 100 82.38                # Mo-S-Mo angle in MoS2
angle_coeff 2 55 104.52                # O-CR-O angle in HCRO4
angle_coeff 3 80 109.50                # H-O-H angle in water

## Minimize the system first
velocity all create 300.0 12345 dist gaussian mom yes rot yes
min_style cg
minimize 1.0e-4 1.0e-6 1000 10000
Ewald initialization ...
WARNING: System is not charge neutral, net charge = 0.00012 (src/kspace.cpp:327)
  using 12-bit tables for long-range coulomb (src/kspace.cpp:342)
WARNING: For better accuracy use 'pair_modify table 0' (src/kspace.cpp:365)
  G vector (1/distance) = 0.39098632
  estimated absolute RMS force accuracy = 1.3523009e-05
  estimated relative force accuracy = 4.0724139e-08
  KSpace vectors: actual max1d max3d = 6917 17 21437
                  kxmax kymax kzmax  = 11 17 17
Generated 136 of 136 mixed pair_coeff terms from arithmetic mixing rule
Neighbor list info ...
  update: every = 1 steps, delay = 0 steps, check = yes
  max neighbors/atom: 2000, page size: 100000
  master list distance cutoff = 12
  ghost atom cutoff = 12
  binsize = 6, bins = 4 6 6
  1 neighbor lists, perpetual/occasional/extra = 1 0 0
  (1) pair lj/cut/coul/long, perpetual
      attributes: half, newton on
      pair build: half/bin/newton
      stencil: half/bin/3d
      bin: standard
WARNING: Inconsistent image flags (src/domain.cpp:1051)
Per MPI rank memory allocation (min/avg/max) = 42.05 | 42.05 | 42.05 Mbytes
   Step          Temp          E_pair         E_mol          TotEng         Press     
         0   300            2316274.5      1714.3882      2319032.5      23380776     
       262   300           -20785.732      3729.769      -16012.382     -1800.3633    
Loop time of 9.9773 on 1 procs for 262 steps with 1168 atoms

99.8% CPU use with 1 MPI tasks x no OpenMP threads

Minimization stats:
  Stopping criterion = energy tolerance
  Energy initial, next-to-last, final = 
      2317988.87131288  -17054.2880022248  -17055.9633390645
  Force two-norm initial, final = 16043505 91.426176
  Force max component initial, final = 6987230.2 23.585941
  Final line search alpha, max atom move = 0.0020010471 0.047196577
  Iterations, force evaluations = 262 472

MPI task timing breakdown:
Section |  min time  |  avg time  |  max time  |%varavg| %total
---------------------------------------------------------------
Pair    | 1.6703     | 1.6703     | 1.6703     |   0.0 | 16.74
Bond    | 0.01022    | 0.01022    | 0.01022    |   0.0 |  0.10
Kspace  | 8.2439     | 8.2439     | 8.2439     |   0.0 | 82.63
Neigh   | 0.045091   | 0.045091   | 0.045091   |   0.0 |  0.45
Comm    | 0.0028319  | 0.0028319  | 0.0028319  |   0.0 |  0.03
Output  | 0          | 0          | 0          |   0.0 |  0.00
Modify  | 0          | 0          | 0          |   0.0 |  0.00
Other   |            | 0.005002   |            |       |  0.05

Nlocal:           1168 ave        1168 max        1168 min
Histogram: 1 0 0 0 0 0 0 0 0 0
Nghost:           3104 ave        3104 max        3104 min
Histogram: 1 0 0 0 0 0 0 0 0 0
Neighs:         391074 ave      391074 max      391074 min
Histogram: 1 0 0 0 0 0 0 0 0 0

Total # of neighbors = 391074
Ave neighs/atom = 334.82363
Ave special neighs/atom = 10.847603
Neighbor list builds = 11
Dangerous builds = 0

# *************** Setting ******************************
# Neighbor settings
#neigh_modify delay 0 every 1 check yes
neigh_modify    delay 5 every 1

# Define SHAKE constraints for water (O-H bonds and H-O-H angle)
fix spce_model water shake 0.0001 20 0 b 4 a 2
Finding SHAKE clusters ...
       0 = # of size 2 clusters
     240 = # of size 3 clusters
       0 = # of size 4 clusters
       0 = # of frozen angles
  find clusters CPU = 0.000 seconds

# Fix MoS2 as rigid (zero force and velocity)
fix mos_hold mos2 setforce 0.0 0.0 0.0
velocity mos2 set 0.0 0.0 0.0

# Define electric field along x direction (0.001 kcal/mol·e·Å)
#fix fix_efield sol efield 0.001 0.0 0.0
# Define velocity field along x direction (0.00002A/fs=0.02A/ps=2nm/ns)
#velocity hcro set 0.0002 0.0 0.0 sum yes
# Define acceleration/gravity field along x direction (unit kcal/g/A = 4.18*10^7 nm/ns^2)
fix 1 sol gravity 0.04 vector 1 0 0

# Set timestep
reset_timestep  0
timestep        1  # fs
fix fix_nvt all nvt temp 300.0 300.0 100.0

# Thermostat output
thermo          100
thermo_style    custom step temp etotal press
# dump every 100fs = 0.1ps
dump d1 all custom 100 dump.lammpstrj id type mol x y z q

# Run for 5 ns (5,000,000 steps)
run 500000
Ewald initialization ...
  using 12-bit tables for long-range coulomb (src/kspace.cpp:342)
WARNING: For better accuracy use 'pair_modify table 0' (src/kspace.cpp:365)
  G vector (1/distance) = 0.39098632
  estimated absolute RMS force accuracy = 1.3523009e-05
  estimated relative force accuracy = 4.0724139e-08
  KSpace vectors: actual max1d max3d = 6917 17 21437
                  kxmax kymax kzmax  = 11 17 17
Generated 136 of 136 mixed pair_coeff terms from arithmetic mixing rule
WARNING: Inconsistent image flags (src/domain.cpp:1051)
Per MPI rank memory allocation (min/avg/max) = 41.81 | 41.81 | 41.81 Mbytes
   Step          Temp          TotEng         Press     
         0   224.87106     -16600.224     -626.94212    
       100   131.59045     -16235.25      -965.8146     
       200   157.04077     -16069.387     -521.94813    
       300   190.91877     -15875.991      352.58168    
       400   230.37484     -15679.674      173.95093    
       500   274.58853     -15490.907      627.24827    
       600   302.60405     -15316.782      1183.707     
       700   308.87994     -15199.562      1956.0619    
       800   337.07545     -15156.7        1247.7838    
       900   304.74471     -15226.807      1342.8072    
      1000   283.38013     -15311.489      1267.7905    
      1100   280.75007     -15360.666      1037.8224    
      1200   286.88773     -15352.858      839.79374    
      1300   312.07094     -15296.625      918.36457    
      1400   322.27931     -15262.117      918.44939    
      1500   321.72847     -15275.835      1147.9994    
      1600   310.56784     -15322.579      1455.7635    
      1700   297.87965     -15381.139      709.32519    
      1800   281.32817     -15383.718      1010.0619    
      1900   308.82692     -15329.604      870.44726    
      2000   295.11538     -15284.742      1400.6274    
      2100   308.51781     -15283.712      902.02975    
      2200   296.63167     -15315.42       658.36697    
      2300   305.99357     -15342.957      497.25616    
      2400   285.39345     -15355.982      956.62992    
      2500   304.36222     -15344.9        473.39159    
      2600   303.06686     -15327.109      733.02796    
      2700   305.44032     -15308.351      760.52948    
      2800   296.28076     -15305.847      945.93558    
      2900   307.76602     -15340.307      727.05586    
      3000   288.77602     -15375.564      364.26971    
      3100   288.58898     -15366.805      294.52928    
      3200   298.81083     -15323.219      899.95382    
      3300   316.64252     -15299.759      531.4183     
      3400   304.86307     -15322.075      573.75452    
      3500   292.29642     -15369.044      827.67007    
      3600   296.93582     -15393.675      718.82172    
      3700   282.69271     -15402.897      937.986      
      3800   290.17613     -15376.858      881.41508    
      3900   308.87998     -15333.522      608.24059    
      4000   310.98026     -15302.01       866.46002    
      4100   302.94743     -15323.969      1088.2354    
      4200   295.69217     -15361.001      691.21871    
      4300   292.82466     -15375.063      867.59298    
      4400   294.96547     -15366.345      927.56782    
      4500   302.53489     -15312.495      884.63292    
      4600   309.03443     -15285.596      1017.5656    
      4700   313.41396     -15307.039      886.60944    
      4800   298.86331     -15367.124      448.39122    
      4900   300.62787     -15376.244      706.93642    
      5000   293.3145      -15361.85       1060.3118    
      5100   308.95779     -15326.435      1066.3959    
      5200   305.83264     -15307.126      1090.974     
      5300   299.36018     -15332.574      764.35812    
      5400   294.75711     -15395.496      736.47735    
      5500   283.75187     -15390.664      437.81432    
      5600   284.33147     -15356.108      1220.7412    
      5700   310.15727     -15326.488      1113.0846    
      5800   299.82817     -15331.809      1166.1996    
      5900   297.19268     -15353.53       843.26141    
      6000   280.84909     -15396.45       657.0513     
      6100   284.14786     -15445.069      520.89767    
      6200   291.91349     -15402.97       1123.2578    
      6300   296.67163     -15355.761      985.6449     
      6400   309.96666     -15329.673      710.57935    
      6500   318.55202     -15306.707      1291.7474    
      6600   295.89866     -15312.284      1854.6067    
      6700   290.58385     -15357.83       1010.021     
      6800   289.89166     -15392.381      940.4693     
      6900   294.54554     -15380.589      530.12836    
      7000   291.5279      -15325.255      799.01935    
      7100   291.81887     -15313.891      893.42592    
      7200   291.0276      -15336.313      1392.9386    
      7300   293.43474     -15358.198      648.98497    
      7400   292.96488     -15350.861      876.71086    
      7500   292.21197     -15359.447      1014.0681    
      7600   296.92293     -15367.505      1347.0064    
      7700   295.14095     -15328.413      741.15493    
      7800   311.11975     -15294.013      1255.9096    
      7900   291.35217     -15294.603      1242.7019    
      8000   286.19186     -15347.376      714.0735     
      8100   302.1662      -15361.837      683.47948    
      8200   303.11502     -15355.803      795.068      
      8300   302.13514     -15357.973      1058.9988    
      8400   287.83666     -15381.245      1114.945     
      8500   281.9562      -15417.067      818.90359    
      8600   294.79313     -15405.25       658.29942    
      8700   290.51898     -15364.87       965.31319    
      8800   285.82536     -15344.299      1307.7352    
      8900   310.96978     -15353.229      576.7519     
      9000   304.40458     -15364.046      186.01677    
      9100   277.59655     -15418.7        758.41033    
      9200   290.65517     -15434.795      791.61941    
      9300   299.37148     -15384.059      150.52587    
      9400   294.03899     -15350.283      1193.9502    
      9500   311.19852     -15330.791      839.69025    
      9600   294.45102     -15351.198      672.19038    
      9700   297.77297     -15395.52       399.34821    
      9800   283.8384      -15430.478      461.71006    
      9900   301.08363     -15435.967     -54.279515    
     10000   296.10722     -15375.468      722.56659    
     10100   312.16789     -15336.621      969.13758    
     10200   289.09332     -15327.274      1052.1574    
     10300   301.40564     -15352.833      493.25473    
     10400   292.27636     -15405.473      336.49466    
     10500   287.64697     -15428.466      248.39462    
     10600   304.74471     -15390.457      382.71489    
     10700   323.23496     -15326.08       671.7806     
     10800   299.70707     -15339.661      650.86078    
     10900   308.49261     -15363.385      498.53766    
     11000   294.37116     -15393.683      962.68838    
     11100   296.39273     -15413.497      568.94006    
     11200   293.09652     -15373.745      1035.2614    
     11300   322.50237     -15330.262      788.33872    
     11400   310.99112     -15344.501      397.70547    
     11500   304.26054     -15374.616      630.56106    
     11600   292.89727     -15396.039      342.22617    
     11700   297.48899     -15397.496      560.33504    
     11800   296.3423      -15387.884      539.03506    
     11900   292.52154     -15390.728      785.32924    
     12000   301.11715     -15377.02       647.74442    
     12100   299.65486     -15345.112      395.77923    
     12200   316.73959     -15297.142      926.43534    
     12300   299.27812     -15299.111      1066.3517    
     12400   282.22708     -15375.387      1185.6853    
     12500   283.92647     -15390.947      645.19501    
     12600   286.30001     -15372.11       701.70113    
     12700   309.98216     -15329.463      664.65651    
     12800   299.81049     -15334.878      759.08857    
     12900   309.19981     -15352.934      568.0608     
     13000   292.17553     -15376.699      761.01266    
     13100   294.79739     -15379.863      652.10653    
     13200   300.18802     -15368.968      519.53898    
     13300   313.4638      -15348.234      938.8822     
     13400   306.32725     -15316.045      774.92508    
     13500   313.37741     -15326.902      780.35242    
     13600   299.49984     -15379.753      729.92029    
     13700   296.80916     -15401.952      681.81661    
     13800   292.50254     -15400.071      1149.8445    
     13900   301.11553     -15358.046      996.16844    
     14000   296.93749     -15337.115      774.17179    
     14100   307.05113     -15347.879      726.39357    
     14200   295.18108     -15377.949      652.63542    
     14300   302.0951      -15392.384      497.92241    
     14400   290.38375     -15389.57       757.35988    
     14500   297.60562     -15384.037      727.43441    
     14600   307.69634     -15347.218      1003.1161    
     14700   297.29415     -15316.975      1313.4719    
     14800   295.48308     -15337.666      1530.2362    
     14900   303.92838     -15390.857      622.86397    
     15000   299.06502     -15402.922      220.69428    
     15100   308.63813     -15383.914      266.36662    
     15200   296.89154     -15339.932      705.46486    
     15300   306.09653     -15332.034      707.74385    
     15400   308.64767     -15348.937      881.06425    
     15500   303.57818     -15387.743      336.77547    
     15600   301.43436     -15405.744      621.05982    
     15700   294.15305     -15429.246      695.15938    
     15800   290.63069     -15459.974      438.57497    
     15900   300.65608     -15407.823      874.98651    
     16000   283.6963      -15356.891      959.04787    
     16100   289.85475     -15337.051      1072.5041    
     16200   298.63048     -15340.026      1081.2026    
     16300   301.15919     -15384.687      1131.4087    
     16400   293.74346     -15426.448      367.89983    
     16500   299.38103     -15404.827      541.01097    
     16600   293.08747     -15374.949      1018.2623    
     16700   310.67339     -15363.515      811.88483    
     16800   299.33358     -15387.756      490.3948     
     16900   291.99954     -15424.675      578.43659    
     17000   281.561       -15447.125      551.71939    
     17100   288.4923      -15395.25       624.09766    
     17200   293.81895     -15346.796      1167.548     
     17300   302.43736     -15351.653      960.61231    
     17400   292.25671     -15395.44       507.32635    
     17500   292.38821     -15421.001      535.26586    
     17600   300.18459     -15398.943      535.66409    
     17700   313.12252     -15312.19       1214.3956    
     17800   324.09526     -15319.185      471.00148    
     17900   307.89315     -15364.823      1107.1492    
     18000   285.85155     -15403.692      987.10182    
     18100   306.6393      -15405.5        678.18072    
     18200   291.28698     -15358.33       726.64426    
     18300   293.34026     -15337.916      1035.2393    
     18400   310.36844     -15340.275      597.95067    
     18500   299.77765     -15370.749      848.84365    
     18600   297.18454     -15404.464      729.61796    
     18700   292.10164     -15419.737      1185.1909    
     18800   307.38825     -15374.769      726.99417    
     18900   308.43363     -15339.923      1349.1746    
     19000   295.98595     -15339.096      1043.1946    
     19100   295.83466     -15376.044      925.22014    
     19200   291.86032     -15416.317      326.93685    
     19300   292.06091     -15412.771      525.65241    
     19400   298.71828     -15392.756      493.58139    
     19500   310.66562     -15379.488      249.9144     
     19600   301.09922     -15369.911      815.13065    
     19700   295.71073     -15360.123      943.82776    
     19800   303.00413     -15331.827      783.40136    
     19900   299.25706     -15348.092      1418.1978    
     20000   295.64292     -15388.907      531.78297    
     20100   304.33393     -15410.28       626.08521    
     20200   297.42148     -15395.314      1014.5241    
     20300   298.60325     -15336.405      773.1514     
     20400   310.02774     -15329.88       825.85606    
     20500   302.53893     -15358.308      946.9585     
     20600   298.28039     -15389.744      646.29273    
     20700   306.88968     -15414.035      301.01295    
     20800   291.89229     -15399.408      452.22549    
     20900   311.0356      -15344.577      65.298638    
     21000   311.66767     -15326.781      989.00652    
     21100   309.52789     -15339.373      688.33518    
     21200   310.97461     -15392.526      433.84152    
     21300   302.67824     -15411.007      156.49498    
     21400   288.48111     -15407.227      90.39221     
     21500   301.22071     -15384.878      929.35323    
     21600   308.34119     -15361.862      398.96959    
     21700   311.72097     -15351.553      881.33909    
     21800   299.50577     -15379.578      1052.1596    
     21900   301.18708     -15415.845      586.92087    
     22000   285.68977     -15428.959      773.99379    
     22100   299.91575     -15389.273      210.4984     
     22200   305.22532     -15349.655      414.83937    
     22300   292.93752     -15359.358      1230.645     
     22400   295.20383     -15390.34       877.62137    
     22500   307.61887     -15417.665      427.88333    
     22600   291.06298     -15433.981      754.67241    
     22700   305.40583     -15400.575      671.7449     
     22800   303.48227     -15357.371      280.7007     
     22900   294.89942     -15339.606      1372.7843    
     23000   295.02695     -15363.274      748.98127    
     23100   295.19805     -15403.799      780.78804    
     23200   298.41056     -15417.657      426.05673    
     23300   306.35702     -15406.841      292.10156    
     23400   291.02671     -15395.815      374.62641    
     23500   297.541       -15381.047      329.84079    
     23600   300.31859     -15378.332      642.1261     
     23700   313.57518     -15372.253      384.62768    
     23800   303.62611     -15367.529      690.06339    
     23900   308.77171     -15361.392      1059.1158    
     24000   292.06747     -15367.409      675.61019    
     24100   288.28699     -15393.818      1013.2994    
     24200   296.3265      -15381.457      955.19673    
     24300   300.59275     -15334.041      1139.3441    
     24400   284.40516     -15304.901      952.64563    
     24500   309.94262     -15308.415      798.76324    
     24600   309.86149     -15341.982      570.84889    
     24700   301.90736     -15402.84       429.99078    
     24800   294.62437     -15410.386      411.46879    
     24900   299.62359     -15391.924      749.41649    
     25000   306.73925     -15356.445      514.29035    
     25100   309.32946     -15333.07       895.34183    
     25200   315.46573     -15322.439      411.51286    
     25300   318.882       -15377.229      762.35994    
     25400   290.76276     -15405.542      699.47029    
     25500   295.91832     -15381.878      832.17436    
     25600   306.09358     -15344.999      778.43209    
     25700   311.69656     -15318.358      829.17331    
     25800   313.07909     -15331.532      369.00928    
     25900   292.53641     -15364.633      931.82053    
     26000   294.263       -15380.464      740.79688    
     26100   303.44982     -15380.961      622.91111    
     26200   309.50324     -15338.638      1000.4939    
     26300   311.60776     -15282.332      1381.7172    
     26400   299.99063     -15311.028      994.42403    
     26500   303.65235     -15361.924      479.01073    
     26600   322.56982     -15389.871      321.139      
     26700   296.22219     -15393.539      643.50269    
     26800   305.33234     -15357.659      581.46199    
     26900   313.70921     -15307.343      798.97013    
     27000   316.2707      -15315.836      816.89981    
     27100   308.30592     -15349.391      787.61612    
     27200   295.51937     -15361.17       435.07963    
     27300   300.06821     -15362.987      525.24205    
     27400   307.43495     -15343.675      470.97521    
     27500   304.19885     -15306.922      1273.1355    
     27600   299.3528      -15320.541      906.37663    
     27700   291.19488     -15369.656      624.29166    
     27800   293.50196     -15392.144      548.11182    
     27900   299.50392     -15376.797      317.96822    
     28000   305.21733     -15343.744      317.58519    
     28100   311.55203     -15332.431      368.40495    
     28200   300.30491     -15338.732      249.48521    
     28300   326.08256     -15358.618      475.58542    
     28400   290.54683     -15422.308      608.36179    
     28500   285.2897      -15412.811      905.45566    
     28600   282.90186     -15377.134      1256.2729    
     28700   296.52742     -15354.456      841.54313    
     28800   322.06147     -15338.852      686.26575    
     28900   308.20873     -15308.067      818.63674    
     29000   315.10808     -15285.355      1125.8127    
     29100   296.9515      -15341.558      1164.8458    
     29200   289.60891     -15370.914      633.70359    
     29300   306.31267     -15378.657      253.9554     
     29400   287.97058     -15373.176      654.28111    
     29500   309.44533     -15325.647      649.67279    
     29600   292.73761     -15299.91       1037.4271    
     29700   314.59566     -15341.871      194.78644    
     29800   284.74078     -15389.197      992.54672    
     29900   310.64123     -15373.227      374.5367     
     30000   302.71621     -15350.658      189.24526    
     30100   302.72971     -15330.811      684.53866    
     30200   303.38632     -15341.943      885.98661    
     30300   295.94743     -15400.111      244.85012    
     30400   304.35364     -15406.863      88.018345    
     30500   295.26191     -15376.823      1032.3869    
     30600   309.80596     -15321.979      319.70706    
     30700   300.25749     -15325.315      609.79069    
     30800   298.93859     -15341.772      838.90052    
     30900   303.69291     -15372.625      232.07297    
     31000   298.45778     -15393.227      636.24391    
     31100   304.04219     -15398.165      646.13802    
     31200   300.4161      -15338.984      891.61036    
     31300   313.35197     -15300.817      842.32202    
     31400   310.92064     -15328.735      850.53332    
     31500   304.03022     -15372.251      254.00427    
     31600   292.1459      -15392.861      676.17401    
     31700   294.83497     -15376.952      680.669      
     31800   295.82925     -15352.424      818.01795    
     31900   308.87425     -15304.845      1068.4144    
     32000   311.40496     -15318.143      894.20188    
     32100   297.09934     -15363.574      609.62045    
     32200   296.123       -15389.254      740.71472    
     32300   303.51865     -15378.955      776.37551    
     32400   310.83287     -15299.199      224.63488    
     32500   306.67861     -15296.684      1105.4295    
     32600   300.36631     -15342.499      972.76168    
     32700   307.60937     -15372.331      221.43665    
     32800   293.20773     -15392.135      624.22979    
     32900   306.79702     -15387.177      687.05632    
     33000   300.12396     -15327.271      1261.1944    
     33100   317.8946      -15304.305      858.36795    
     33200   307.92356     -15332.473      770.48898    
     33300   314.09901     -15352.898      416.72951    
     33400   307.63954     -15370.466      845.30096    
     33500   300.47756     -15383.043      709.65248    
     33600   303.86912     -15368.296      562.49977    
     33700   294.41916     -15314.811      1414.0755    
     33800   306.70884     -15304.922      1419.9384    
     33900   298.68001     -15346.191      1148.8336    
     34000   301.08313     -15365.183      940.29206    
     34100   300.48309     -15372.717      1192.83      
     34200   302.63559     -15378.827      775.78289    
     34300   317.25415     -15378.034      338.09058    
     34400   307.6853      -15362.016      500.0533     
     34500   304.17785     -15360.157      822.41199    
     34600   287.19338     -15388.854      806.40661    
     34700   301.38129     -15418.233      306.64313    
     34800   297.7288      -15418.179      224.33983    
     34900   307.84341     -15351.759      886.09621    
     35000   312.8318      -15340.662      352.77194    
     35100   295.17906     -15366.191      690.96025    
     35200   292.08801     -15407.86       14.253713    
     35300   287.24107     -15414.656      422.58846    
     35400   284.70273     -15386.779      380.05513    
     35500   288.63361     -15362.575      650.46619    
     35600   294.26963     -15344.975      325.40674    
     35700   314.65493     -15317.402      462.04074    
     35800   302.04801     -15335.684      415.67405    
     35900   287.80135     -15401.416      506.46608    
     36000   290.34082     -15406.514      335.01026    
     36100   289.51371     -15388.13       329.17324    
     36200   312.78896     -15346.162      493.72311    
     36300   300.15341     -15315.47       598.38324    
     36400   295.43816     -15349.161      604.11942    
     36500   286.35222     -15409.723      1151.4468    
     36600   294.18925     -15412.158      641.05401    
     36700   289.9805      -15401.348      488.79735    
     36800   303.53122     -15343.636      392.14057    
     36900   302.09121     -15325.897      1112.973     
     37000   300.37552     -15348.548      722.19483    
     37100   309.03767     -15377.712      514.65306    
     37200   300.17691     -15386.881      348.80023    
     37300   306.20369     -15382.209      92.083568    
     37400   308.78085     -15378.599      206.5823     
     37500   279.11641     -15373.775      1023.4882    
     37600   305.69336     -15370.365      91.633757    
     37700   293.96545     -15379.972      256.07488    
     37800   291.59619     -15418.887      376.38725    
     37900   295.93824     -15439.249      11.00805     
     38000   300.01665     -15419.417     -10.237751    
     38100   304.09688     -15367.232      522.90843    
     38200   300.64642     -15356.035      522.69207    
     38300   298.5444      -15362.569      379.33086    
     38400   285.98517     -15405.726      474.05735    
     38500   273.0533      -15458.147      322.97303    
     38600   285.05738     -15429.179      124.05241    
     38700   300.1025      -15394.007      454.43972    
     38800   308.88809     -15385.795      502.81029    
     38900   306.66373     -15376.913      282.46101    
     39000   300.79661     -15355.347      422.18002    
     39100   312.99456     -15308.649      572.11606    
     39200   309.63676     -15331.493      538.10888    
     39300   294.25704     -15386.655      10.912013    
     39400   299.78723     -15410.71       590.04307    
     39500   282.21553     -15406.648      167.18496    
     39600   313.58693     -15363.273      348.28349    
     39700   313.07504     -15330.706      455.61906    
     39800   311.92143     -15343.696      508.56382    
     39900   292.87915     -15427.327     -279.26061    
     40000   295.06776     -15436.6        177.06052    
     40100   295.97979     -15407.774      365.68641    
     40200   294.10792     -15365.758      684.20938    
     40300   300.54979     -15351.748      435.71848    
     40400   307.03925     -15369.551      470.80312    
     40500   291.15073     -15407.881      340.79346    
     40600   297.65703     -15416.194     -120.50387    
     40700   290.11967     -15402.23       639.29965    
     40800   317.16054     -15368.727      0.68326211   
     40900   309.66633     -15346.619      74.428492    
     41000   303.22543     -15340.872      372.44454    
     41100   296.17929     -15377.725     -43.352985    
     41200   297.76599     -15414.455      382.58179    
     41300   302.40608     -15409.393     -81.591994    
     41400   292.55464     -15369.294      376.47891    
     41500   301.68218     -15337.15       666.6288     
     41600   297.48882     -15345.648      499.19809    
     41700   297.46        -15362.646      540.28709    
     41800   301.48468     -15387.631      92.981787    
     41900   306.99158     -15408.284      328.89188    
     42000   285.34005     -15458.219      69.791853    
     42100   285.27838     -15461.739      168.29577    
     42200   293.35123     -15412.939      404.47748    
     42300   279.30162     -15379.006      975.52471    
     42400   301.89425     -15353.171      823.22612    
     42500   311.32386     -15361.401     -59.480324    
     42600   294.31405     -15409.465      334.37095    
     42700   294.22143     -15432.697     -51.418546    
     42800   284.44538     -15416.528      275.24478    
     42900   293.34574     -15390.281      582.85226    
     43000   315.6049      -15386.802      340.11632    
     43100   278.64823     -15389.717      1063.3539    
     43200   297.38493     -15394.995     -315.01302    
     43300   295.96664     -15384.703      461.75342    
     43400   302.33354     -15357.192      158.70958    
     43500   305.45284     -15341.607      739.63363    
     43600   313.87693     -15372.627      181.29376    
     43700   290.52094     -15429.296      140.08083    
     43800   285.61599     -15430.64       112.09303    
     43900   298.91615     -15387.163      908.43473    
     44000   310.19017     -15364.804      229.202      
     44100   290.00283     -15364.442      353.47961    
     44200   297.27963     -15375.273      450.05138    
     44300   292.49774     -15390.631      662.60567    
     44400   286.179       -15415.685      588.13711    
     44500   297.21448     -15414.413      280.67351    
     44600   288.95618     -15363.904      300.26692    
     44700   312.48734     -15326.735      500.78436    
     44800   313.3975      -15319.691      577.04138    
     44900   289.67345     -15359.336      235.95494    
     45000   298.67802     -15393.304     -64.08759     
     45100   294.38283     -15386.829     -85.072238    
     45200   315.20319     -15375.652     -110.76168    
     45300   313.28833     -15352.909      336.91997    
     45400   300.66901     -15349.488      583.58272    
     45500   287.12726     -15384.869      421.88563    
     45600   294.86043     -15410.28       184.24996    
     45700   296.34409     -15400.017     -266.75142    
     45800   296.09522     -15348.171      805.11414    
     45900   307.41245     -15316.427      800.68521    
     46000   290.02324     -15333.941      528.98785    
     46100   306.41353     -15372.669      583.1998     
     46200   307.78712     -15389.729      491.68362    
     46300   305.26649     -15393.457     -54.088588    
     46400   303.19082     -15380.032      129.87934    
     46500   298.41865     -15363.482      704.31792    
     46600   307.10758     -15326.747      176.55627    
     46700   313.43969     -15287.554      499.58811    
     46800   306.58278     -15321.36       548.79062    
     46900   303.1445      -15375.734      51.811755    
     47000   299.2692      -15380.391      597.79       
     47100   306.59914     -15371.906      84.182942    
     47200   304.72617     -15381.994      580.00454    
     47300   287.93562     -15418.666      379.60283    
     47400   285.2768      -15441.908      182.56187    
     47500   290.60944     -15407.704      105.86139    
     47600   300.94101     -15350.438      434.68285    
     47700   299.5069      -15337.286      731.54794    
     47800   313.32058     -15355.766      188.31413    
     47900   285.63479     -15408.282      311.26856    
     48000   300.73065     -15406.862      385.54955    
     48100   304.29491     -15384.062      187.42769    
     48200   289.49833     -15368.554      219.60351    
     48300   289.63031     -15377.213      517.47992    
     48400   307.07336     -15390.259      287.84618    
     48500   293.39835     -15435.821     -37.471604    
     48600   295.91098     -15435.052      357.85739    
     48700   306.42477     -15387.691      370.92942    
     48800   299.23817     -15360.925      579.14817    
     48900   303.82215     -15363.894      89.458161    
     49000   312.89168     -15375.662      612.11608    
     49100   295.39689     -15424.424      383.16075    
     49200   302.45744     -15441.167     -347.7523     
     49300   307.06298     -15400.499      32.690386    
     49400   308.58558     -15359.745      770.11827    
     49500   305.31969     -15367.834      665.98192    
     49600   296.75453     -15393.18       260.96736    
     49700   289.01873     -15418.8        443.4108     
     49800   295.08784     -15437.949      307.50325    
     49900   297.41193     -15443.575      47.364652    
     50000   312.85285     -15420.725      300.07153    
     50100   297.52591     -15373.749      752.76441    
     50200   318.60284     -15352.082      76.141743    
     50300   299.19693     -15383.094      509.80053    
     50400   293.29288     -15416.469     -4.0470226    
     50500   297.11347     -15404.545      232.8411     
     50600   292.7043      -15313.569      763.66846    
     50700   306.91505     -15288.628      600.94362    
     50800   320.51674     -15322.012      695.77993    
     50900   297.79599     -15374.985      493.64107    
     51000   289.24664     -15385.342      285.65987    
     51100   306.34327     -15361.17       136.25396    
     51200   305.60677     -15315.574      295.87196    
     51300   315.6372      -15321.176      629.33263    
     51400   309.83268     -15361.591      807.35448    
     51500   305.85016     -15365.106      632.99363    
     51600   303.31249     -15357.441      661.61707    
     51700   300.2364      -15346.903      430.94553    
     51800   303.10518     -15350.609      741.82534    
     51900   300.94812     -15400.853      725.08224    
     52000   288.73383     -15430.94       234.84182    
     52100   297.41722     -15412.117      292.14919    
     52200   290.73295     -15345.585      1103.4265    
     52300   301.30154     -15341.543      598.08789    
     52400   294.91476     -15364.299      448.68893    
     52500   306.13064     -15400.294      641.43966    
     52600   285.62815     -15420.928      496.73531    
     52700   300.0581      -15392.639      522.04347    
     52800   296.21718     -15320.026      1349.6738    
     52900   300.44342     -15325.931      926.22623    
     53000   294.99377     -15371          517.18929    
     53100   291.65101     -15407.435      298.9301     
     53200   301.55416     -15408.886     -4.8070066    
     53300   300.94862     -15395.65       358.08811    
     53400   308.77646     -15389.802      514.6077     
     53500   303.63081     -15387.676      170.40133    
     53600   305.60538     -15391.026      340.84154    
     53700   302.83229     -15383.708      1046.4879    
     53800   293.45594     -15427.576      326.02604    
     53900   283.14896     -15452.007      195.32966    
     54000   298.93588     -15414.171      464.37299    
     54100   309.7403      -15393.477      384.21298    
     54200   312.90423     -15375.854      183.17672    
     54300   306.06018     -15356.951      676.18001    
     54400   309.08392     -15342.692      751.02663    
     54500   307.89134     -15317.646      910.34372    
     54600   318.44559     -15287.991      1499.3578    
     54700   307.24369     -15327.396      1069.8455    
     54800   306.37898     -15369.602      693.3658     
     54900   305.39839     -15385.289      534.83903    
     55000   291.40733     -15379.017      706.11065    
     55100   297.53555     -15358.783      954.24227    
     55200   315.71825     -15297.016      1024.6068    
     55300   311.46521     -15295.583      933.42245    
     55400   290.63894     -15342.98       1174.7819    
     55500   312.44149     -15367.538      682.78405    
     55600   294.74443     -15369.268      776.99196    
     55700   285.00403     -15359.717      768.76896    
     55800   303.63431     -15327.365      935.25035    
     55900   307.88871     -15303.324      446.1067     
     56000   305.65507     -15321.229      698.53296    
     56100   299.35464     -15368.576      695.62871    
     56200   301.2006      -15371.615      329.99285    
     56300   305.1744      -15351.58       419.46406    
     56400   304.80922     -15319.802      431.28105    
     56500   307.28185     -15325.861      509.24367    
     56600   309.32129     -15350.847      359.66599    
     56700   309.31489     -15371.506      85.103523    
     56800   299.07379     -15386.467      396.67994    
     56900   297.87739     -15407.671      545.35697    
     57000   279.77323     -15430.381      360.27531    
     57100   292.08005     -15432.929      260.44109    
     57200   300.25692     -15378.773      775.45817    
     57300   298.91884     -15353.147      956.96168    
     57400   298.1932      -15355.567      920.46033    
     57500   301.18974     -15374.748      534.9723     
     57600   296.0229      -15429.191      751.88732    
     57700   278.42846     -15446.735      92.989226    
     57800   309.48132     -15402.024      269.9496     
     57900   296.91911     -15384.337      626.48976    
     58000   310.20507     -15375.289      758.91019    
     58100   294.38068     -15386.892      713.84819    
     58200   288.65234     -15411.142      445.7642     
     58300   293.37816     -15425.672      429.25115    
     58400   298.0432      -15375.02       1031.0002    
     58500   300.30848     -15335.271      1389.6531    
     58600   298.89127     -15329.068      722.36796    
     58700   291.14633     -15354.887      385.6135     
     58800   306.2813      -15390.349      508.85796    
     58900   286.69724     -15452.176      196.03497    
     59000   279.59198     -15433.238      598.23235    
     59100   292.66011     -15393.068      1050.3225    
     59200   287.78247     -15362.75       552.71262    
     59300   296.6679      -15327.789      609.56332    
     59400   302.2389      -15328.153      1073.1307    
     59500   302.98786     -15384.769      694.23928    
     59600   296.29316     -15415.682      147.21078    
     59700   294.02242     -15425.506      543.07401    
     59800   297.70319     -15403.561      183.55247    
     59900   298.70067     -15364.376      8.8857734    
     60000   311.36356     -15308.272      661.4556     
     60100   320.23705     -15327.779      912.69719    
     60200   298.7129      -15364.839     -18.480772    
     60300   296.83362     -15378.249      728.28289    
     60400   290.84296     -15394.908      433.41064    
     60500   301.52099     -15392.565      610.17248    
     60600   304.41211     -15371.744      241.21017    
     60700   319.06467     -15347.359      347.15814    
     60800   321.3198      -15356.905      36.159735    
     60900   301.57869     -15381.394      436.03457    
     61000   311.11974     -15383.341      554.78416    
     61100   310.7513      -15342.886      878.25095    
     61200   309.38712     -15322.034      657.25202    
     61300   302.5721      -15351.04       488.52658    
     61400   292.52816     -15401.249     -15.978365    
     61500   293.25366     -15405.42       148.79264    
     61600   302.43614     -15381.591      694.65939    
     61700   310.87474     -15344.289      11.55715     
     61800   309.34913     -15330.547      649.81211    
     61900   297.84231     -15377.91       391.0448     
     62000   282.92763     -15425.576      324.62587    
     62100   299.51515     -15405.773      189.02545    
     62200   303.42802     -15374.982      366.64556    
     62300   310.59487     -15363.749      192.96187    
     62400   311.88397     -15375.009      13.6675      
     62500   298.43418     -15400.143      558.12283    
     62600   294.69038     -15458.043     -20.94932     
     62700   277.83713     -15448.415      440.98968    
     62800   300.53617     -15397.063      368.8652     
     62900   300.63909     -15376.355      383.81544    
     63000   300.00296     -15350.825      349.5158     
     63100   301.79456     -15345.367      308.69239    
     63200   292.00123     -15360.267      736.2321     
     63300   294.36541     -15387.249      542.88563    
     63400   293.68926     -15419.644      468.93312    
     63500   280.99049     -15419.044      144.25373    
     63600   306.80966     -15365.321      216.31708    
     63700   321.04921     -15344.288      428.96185    
     63800   309.27129     -15358.016      149.47047    
     63900   291.13421     -15371.337      602.16347    
     64000   287.74714     -15366.123      676.60668    
     64100   305.8534      -15359.343      295.46249    
     64200   307.1965      -15354.673      641.55158    
     64300   310.76576     -15345.34       209.79417    
     64400   307.65924     -15293.474      725.53599    
     64500   308.54446     -15259.666      1438.7753    
     64600   296.88347     -15312.554      1267.2276    
     64700   296.05636     -15346.532      1177.9829    
     64800   306.31891     -15353.749      400.29507    
     64900   312.10362     -15369.131      840.16895    
     65000   295.9299      -15385.165      427.7539     
     65100   282.50137     -15370.058      735.65212    
     65200   305.31377     -15344.097      454.94755    
     65300   305.14625     -15343.44       633.69297    
     65400   298.06995     -15375.175      621.86316    
     65500   301.69257     -15401.534      471.6172     
     65600   280.13137     -15393.372      633.97765    
     65700   310.07118     -15331.987      699.64395    
     65800   308.182       -15325.947      140.59282    
     65900   306.94693     -15352.794      330.06297    
     66000   297.055       -15394.301      309.04388    
     66100   295.23063     -15405.657      208.05456    
     66200   284.78062     -15389.124      227.03301    
     66300   312.37533     -15375.294      276.19958    
     66400   297.31108     -15380.931      104.78068    
     66500   296.85956     -15385.484      528.79584    
     66600   304.1318      -15385.763      388.29296    
     66700   306.30994     -15344.513      281.09852    
     66800   310.69885     -15269.348      917.5435     
     66900   314.63087     -15305.047      622.94243    
     67000   291.15702     -15355.148      552.4739     
     67100   307.40918     -15380.867      161.87068    
     67200   310.12155     -15406.253      77.832658    
     67300   291.4133      -15417.02      -232.07267    
     67400   295.98407     -15365.279      583.23441    
     67500   311.40102     -15336.911      650.01012    
     67600   313.51744     -15354.532      492.05975    
     67700   299.02277     -15398.109      102.23598    
     67800   296.63716     -15408.647      376.18584    
     67900   287.78436     -15404.747      937.58319    
     68000   301.05485     -15387.244      597.12932    
     68100   309.76432     -15359.182      682.75177    
     68200   310.28537     -15350.915      600.74116    
     68300   300.14139     -15362.189      386.28375    
     68400   294.94676     -15366.32       844.6103     
     68500   293.35969     -15376.018      1116.7006    
     68600   287.6568      -15413.371      429.36381    
     68700   281.80624     -15454.293      637.18827    
     68800   302.49719     -15414.047      180.47494    
     68900   304.19732     -15384.594      647.18888    
     69000   296.06691     -15369.521      671.08975    
     69100   316.35326     -15355.462      235.58756    
     69200   301.82866     -15366.254      416.16055    
     69300   292.07314     -15419.877      319.60862    
     69400   282.46615     -15436.527      210.36908    
     69500   303.98367     -15397.138      306.7235     
     69600   294.95173     -15351.963      846.68399    
     69700   289.76034     -15363.157      1035.7396    
     69800   287.85456     -15384.502      801.29403    
     69900   294.46362     -15406.661      299.53875    
     70000   288.3099      -15427.307      294.09592    
     70100   298.91091     -15405.54       569.15525    
     70200   292.56316     -15354.066      744.29157    
     70300   314.18407     -15330.212      381.1044     
     70400   299.31605     -15359.315      679.92055    
     70500   302.95348     -15389.185      204.50112    
     70600   283.51625     -15412.557      590.24862    
     70700   300.41161     -15405.624      350.77873    
     70800   300.58166     -15389.681      372.92993    
     70900   291.20692     -15376.658      442.11437    
     71000   293.75007     -15353.453      699.40358    
     71100   314.58679     -15310.835      1110.8764    
     71200   301.43986     -15284.07       1196.0464    
     71300   309.62176     -15338.643      493.87022    
     71400   297.49003     -15368.395      1186.575     
     71500   284.05986     -15364.474      987.36241    
     71600   302.59643     -15325.342      965.88909    
     71700   309.56127     -15297.002      1125.703     
     71800   294.85135     -15315.778      1109.3746    
     71900   304.42713     -15395.051      603.3835     
     72000   302.71773     -15429.035      198.20523    
     72100   293.97151     -15398.824      344.37359    
     72200   301.46404     -15340.7        930.27692    
     72300   302.95513     -15317.077      1404.4225    
     72400   302.1503      -15339.777      666.18405    
     72500   279.41975     -15374.572      1062.0333    
     72600   304.19427     -15380.153      632.0129     
     72700   301.0339      -15362.984      623.79581    
     72800   301.07635     -15359.707      932.35713    
     72900   295.8755      -15362.937      660.22519    
     73000   308.69431     -15379.968      271.33792    
     73100   303.34749     -15384.998      618.48083    
     73200   307.09229     -15393.979      443.51998    
     73300   299.11303     -15415.281      318.28538    
     73400   294.01787     -15418.531      251.38955    
     73500   297.51373     -15375.833      932.796      
     73600   291.5454      -15337.918      824.97214    
     73700   310.15433     -15341.936      806.85843    
     73800   287.4033      -15382.023      610.3965     
     73900   300.97234     -15443.795      341.33033    
     74000   289.47322     -15440.979      496.17963    
     74100   293.87209     -15399.459      687.37969    
     74200   287.79208     -15376.555      482.84738    
     74300   300.01317     -15356.89       689.78743    
     74400   285.09667     -15342.73       757.94142    
     74500   304.48075     -15304.748      1060.3659    
     74600   306.40365     -15260.666      1120.6338    
     74700   309.29588     -15298.617      1035.4519    
     74800   295.37538     -15334.273      705.23226    
     74900   293.70305     -15345.839      550.92993    
     75000   299.67667     -15374.561      503.03759    
     75100   300.12359     -15411.517      332.21843    
     75200   298.71099     -15421.342      158.85555    
     75300   287.69995     -15354.862      1279.2469    
     75400   309.72275     -15328.201      773.1461     
     75500   294.86065     -15349.552      917.75528    
     75600   294.74152     -15379.623      824.14783    
     75700   305.05072     -15390.698      684.25924    
     75800   287.5092      -15385.613      683.2503     
     75900   302.22807     -15338.464      712.17583    
     76000   322.21534     -15323.248      505.04808    
     76100   310.97337     -15355.703      892.85665    
     76200   291.51824     -15397.802      636.46131    
     76300   298.48644     -15397.067      555.89561    
     76400   275.33907     -15378.885      1043.9034    
     76500   299.09104     -15350.745      520.3938     
     76600   309.95389     -15341.98       715.13972    
     76700   304.24169     -15350.173      771.85723    
     76800   310.52922     -15373.043      954.99019    
     76900   288.38096     -15407.893      516.54628    
     77000   296.77663     -15419.415      532.05506    
     77100   291.17646     -15361.599      560.79585    
     77200   308.75859     -15319.63       1271.6883    
     77300   311.29391     -15315.057      1093.748     
     77400   295.72115     -15357.94       1073.1043    
     77500   302.67105     -15387.617      1004.9735    
     77600   282.96928     -15384.338      1155.3954    
     77700   290.87189     -15356.759      1238.7211    
     77800   303.41419     -15345.409      1221.2356    
     77900   311.85734     -15330.381      1023.0597    
     78000   298.65383     -15318.042      1127.218     
     78100   314.57056     -15287.692      952.51147    
     78200   304.65237     -15275.896      1372.511     
     78300   303.12606     -15325.279      916.76887    
     78400   298.34526     -15365.674      754.05292    
     78500   296.41798     -15366.429      890.39242    
     78600   297.24857     -15340.489      1061.924     
     78700   309.59675     -15301.367      898.48547    
     78800   298.04297     -15319.933      1033.2338    
     78900   302.23179     -15343.275      788.58696    
     79000   292.34714     -15362.368      839.45812    
     79100   299.0459      -15394.769      577.25318    
     79200   283.09185     -15426.136      717.69658    
     79300   277.68915     -15383.895      723.47511    
     79400   300.06454     -15352.469      721.06768    
     79500   307.83263     -15331.697      694.88817    
     79600   309.64376     -15319.187      749.74543    
     79700   305.6682      -15322.605      1052.6549    
     79800   298.51346     -15366.502      994.35037    
     79900   286.49681     -15397.51       625.07194    
     80000   296.18267     -15375.628      995.46764    
     80100   295.67891     -15343.517      250.30991    
     80200   302.53605     -15332.265      862.03348    
     80300   312.76101     -15334.498      353.10623    
     80400   286.71694     -15333.975      1067.2982    
     80500   292.23595     -15356.395      1175.534     
     80600   299.0158      -15380.945      816.8062     
     80700   292.54869     -15375.165      655.57036    
     80800   310.43873     -15299.419      1126.0661    
     80900   293.92368     -15289.379      862.20338    
     81000   302.92701     -15330.098      600.87592    
     81100   301.46598     -15362.091      597.31843    
     81200   287.07426     -15368.589      1131.2259    
     81300   310.03512     -15365.36       593.11795    
     81400   300.48511     -15375.653      477.78578    
     81500   291.96883     -15396.75       697.76826    
     81600   290.89477     -15371.16       837.10622    
     81700   312.59287     -15325.27       502.93495    
     81800   306.67272     -15318.726      1089.9524    
     81900   304.72907     -15335.72       744.20022    
     82000   291.95314     -15400.417      876.40205    
     82100   286.57374     -15398.706      652.62229    
     82200   300.05029     -15353.716      1331.9583    
     82300   308.34124     -15317.219      902.19629    
     82400   301.4203      -15303.358      1246.492     
     82500   292.54122     -15300.304      1135.3312    
     82600   316.74098     -15264.644      880.97581    
     82700   306.33735     -15241.108      1028.0618    
     82800   289.04423     -15279.113      1067.5463    
     82900   297.01007     -15323.894      1244.2754    
     83000   301.54385     -15348.347      599.6519     
     83100   289.01892     -15355.069      813.11488    
     83200   302.7264      -15310.88       678.84123    
     83300   304.28325     -15277.047      1305.5391    
     83400   307.07718     -15307.032      1337.2863    
     83500   293.47812     -15336.398      1039.0241    
     83600   284.24234     -15348.027      1488.6999    
     83700   303.01502     -15336.216      1185.8807    
     83800   307.74043     -15307.094      1475.2983    
     83900   310.58086     -15273.896      1310.8382    
     84000   306.75024     -15282.694      1587.2652    
     84100   298.71033     -15326.456      1282.5957    
     84200   284.6469      -15331.098      1567.2677    
     84300   303.84811     -15312.187      1062.8903    
     84400   303.5419      -15287.385      1452.9461    
     84500   316.03667     -15248.737      1698.8163    
     84600   309.51977     -15256.47       1429.1419    
     84700   293.24657     -15305.998      1279.8288    
     84800   296.71592     -15312.486      1441.9193    
     84900   290.99848     -15329.96       1240.9974    
     85000   311.28393     -15339.036      658.29438    
     85100   302.62729     -15308.987      1152.1367    
     85200   306.39778     -15270.306      877.69371    
     85300   313.29056     -15255.319      1708.2486    
     85400   293.3755      -15298.079      1516.8309    
     85500   293.01317     -15344.252      1445.4695    
     85600   303.39298     -15335.972      1240.1066    
     85700   307.23959     -15308.981      1293.1542    
     85800   320.03704     -15265.777      1313.9586    
     85900   307.61602     -15269.273      1363.9869    
     86000   297.20055     -15276.794      1713.4079    
     86100   301.74123     -15279.512      1607.8019    
     86200   289.36508     -15272.413      1604.6487    
     86300   300.18879     -15280.481      1943.9236    
     86400   290.42096     -15314.978      2066.6932    
     86500   292.9108      -15341.565      991.24306    
     86600   303.88978     -15318.028      1556.127     
     86700   310.52795     -15270.512      1728.7225    
     86800   299.37555     -15258.683      2074.8105    
     86900   299.36335     -15275.987      1341.8407    
     87000   301.3285      -15307.963      1654.4402    
     87100   294.23514     -15303.349      1410.3009    
     87200   297.12595     -15293.342      1725.5959    
     87300   306.53845     -15277.265      1852.3008    
     87400   303.39846     -15222.061      2429.9583    
     87500   320.54296     -15217.693      2054.4858    
     87600   307.54543     -15266.202      1556.2724    
     87700   305.45407     -15291.254      1676.1348    
     87800   302.96902     -15299.634      1675.8189    
     87900   291.54272     -15316.696      1947.4257    
     88000   299.04401     -15348.527      1479.586     
     88100   282.14638     -15388.98       1599.2924    
     88200   284.93816     -15367.021      1471.873     
     88300   306.90276     -15313.793      1214.8389    
     88400   319.28891     -15316.377      1033.722     
     88500   295.92668     -15345.814      1350.5156    
     88600   296.75118     -15360.246      1089.3668    
     88700   304.07313     -15322.885      1466.3027    
     88800   306.71493     -15294.089      1569.6543    
     88900   307.62653     -15287.982      1337.4633    
     89000   306.94138     -15286.282      908.97187    
     89100   307.05178     -15321.333      1074.9783    
     89200   294.3658      -15351.801      1407.6438    
     89300   299.93581     -15330.317      1139.3566    
     89400   299.05375     -15258.648      1357.7283    
     89500   310.27767     -15264.216      1537.2795    
     89600   290.59196     -15300.378      1090.9192    
     89700   288.46514     -15313.867      1611.354     
     89800   315.05997     -15313.975      1037.7379    
     89900   298.28632     -15269.156      1883.3832    
     90000   308.46464     -15244.024      1666.8981    
     90100   284.25686     -15280.534      2153.6223    
     90200   299.69463     -15311.623      1619.2634    
     90300   294.95974     -15321.94       1678.4958    
     90400   303.34354     -15315.985      1431.0979    
     90500   298.48685     -15258.994      2224.0251    
     90600   305.6987      -15223.587      1955.1772    
     90700   296.10639     -15258.914      1631.7268    
     90800   304.25968     -15294.074      1079.094     
     90900   311.22302     -15287.564      1404.7669    
     91000   305.72587     -15273.478      1708.3825    
     91100   311.43675     -15266.286      1600.5674    
     91200   303.31386     -15289.14       1123.1762    
     91300   301.62961     -15305.439      1462.9519    
     91400   297.52091     -15319.247      1332.8462    
     91500   288.4153      -15282.452      1838.7934    
     91600   320.38474     -15230.526      1562.8827    
     91700   312.63917     -15251.245      1662.2745    
     91800   289.37116     -15290.504      1693.0973    
     91900   304.32817     -15299.512      1604.5395    
     92000   293.41585     -15299.967      2008.1273    
     92100   308.76121     -15289.756      1443.8156    
     92200   290.21028     -15264.316      2258.3006    
     92300   306.35835     -15233.843      2622.4863    
     92400   298.4237      -15241.937      2604.6326    
     92500   302.91644     -15256.283      2423.654     
     92600   297.68386     -15258.347      2620.8348    
     92700   302.1571      -15261.949      1914.3475    
     92800   305.12728     -15236.079      2189.3763    
     92900   302.03159     -15235.739      1911.8326    
     93000   290.32577     -15266.699      1798.2351    
     93100   298.73426     -15303.144      1828.3025    
     93200   309.84301     -15338.029      1617.299     
     93300   289.69608     -15381.068      1751.4645    
     93400   302.69663     -15365.253      1397.673     
     93500   305.19903     -15287.445      2302.1603    
     93600   305.78463     -15281.522      1678.8015    
     93700   298.70497     -15316.695      2156.1107    
     93800   307.68743     -15345.695      994.85406    
     93900   294.2916      -15352.902      1525.6977    
     94000   308.17431     -15321.089      1327.7295    
     94100   298.74907     -15283.698      1506.2964    
     94200   300.06182     -15288.606      1355.1989    
     94300   301.05437     -15341.962      1079.7046    
     94400   306.62818     -15363.681      1104.7574    
     94500   293.18281     -15357.16       1323.8506    
     94600   308.74931     -15316.429      1665.5211    
     94700   317.95136     -15256.305      1664.6328    
     94800   312.70115     -15231.885      2147.9104    
     94900   306.14769     -15295.054      1810.9454    
     95000   299.81598     -15330.087      1547.9348    
     95100   305.48773     -15357.543      1009.9019    
     95200   287.31386     -15365.408      1733.0583    
     95300   302.50841     -15349.675      1362.1971    
     95400   301.90173     -15293.97       1860.0023    
     95500   306.91923     -15270.206      2110.1307    
     95600   309.03784     -15300.846      1474.9884    
     95700   293.3839      -15331.414      1656.4282    
     95800   305.09818     -15341.52       972.59436    
     95900   291.63305     -15344.907      1877.742     
     96000   295.83972     -15317.935      1623.9652    
     96100   294.14684     -15306.332      1763.2893    
     96200   302.60572     -15328.461      2052.8671    
     96300   295.05755     -15360.206      1360.9883    
     96400   304.07971     -15372.968      1202.6083    
     96500   292.30409     -15355.614      1665.9066    
     96600   301.66421     -15305.06       1925.0295    
     96700   299.13644     -15288.876      2085.2794    
     96800   297.31736     -15329.52       1822.8507    
     96900   299.411       -15359.893      1338.7205    
     97000   295.70848     -15356.496      1228.5676    
     97100   294.46666     -15337.075      967.89725    
     97200   298.87805     -15297.234      1820.2385    
     97300   302.46431     -15257.778      1817.6543    
     97400   306.66249     -15247.893      1879.7732    
     97500   294.02928     -15325.728      1795.6892    
     97600   299.54252     -15339.356      988.92609    
     97700   302.50192     -15326.642      1299.3019    
     97800   300.52741     -15298.955      1757.7799    
     97900   302.1887      -15259.861      1925.0547    
     98000   307.66634     -15253.927      1185.9284    
     98100   294.30926     -15335.162      1295.2423    
     98200   300.0206      -15345.157      1394.2559    
     98300   299.48918     -15323.526      1270.3594    
     98400   312.3169      -15289.239      1245.262     
     98500   304.76118     -15290.12       1541.9524    
     98600   285.11512     -15362.445      923.98918    
     98700   295.62752     -15365.644      1199.8465    
     98800   296.3569      -15329.208      1385.5638    
     98900   307.66593     -15304.327      1447.8452    
     99000   313.53829     -15299.032      1031.7061    
     99100   301.86072     -15321.124      1241.1521    
     99200   293.24788     -15323.873      1612.0673    
     99300   308.63226     -15323.843      1282.5886    
     99400   285.27975     -15337.154      1720.9465    
     99500   293.56457     -15340.521      1216.8571    
     99600   301.31089     -15290.068      1471.7728    
     99700   308.94804     -15261.652      2207.7721    
     99800   305.32886     -15303.105      1678.8243    
     99900   292.55742     -15334.953      1207.8902    
    100000   305.37715     -15328.256      1721.2822    
    100100   299.27907     -15313.154      1463.9801    
    100200   287.47359     -15300.803      1544.9776    
    100300   306.00295     -15261.212      1925.6743    
    100400   312.78683     -15247.004      1668.304     
    100500   298.59086     -15296.988      1754.1351    
    100600   301.51168     -15320.352      1167.0939    
    100700   297.07561     -15315.189      1819.7036    
    100800   288.5957      -15283.991      2304.8734    
    100900   289.53724     -15242.081      1809.6017    
    101000   306.91991     -15240.751      1748.327     
    101100   286.54119     -15321.863      1695.6041    
    101200   296.97176     -15321.213      1567.2515    
    101300   305.65392     -15288.68       1609.4505    
    101400   306.91776     -15253.364      1893.4854    
    101500   302.42977     -15257.446      1707.0106    
    101600   296.39244     -15287.249      1618.8732    
    101700   292.88313     -15322.417      1620.2481    
    101800   277.37667     -15307.832      1659.3771    
    101900   306.74982     -15264.354      1463.3821    
    102000   314.62587     -15259.005      1279.8808    
    102100   303.92834     -15276.917      1744.8805    
    102200   295.57601     -15298.572      1269.8985    
    102300   319.38115     -15303.847      1206.3646    
    102400   304.86192     -15297.871      1437.0761    
    102500   309.76476     -15268.533      1847.5253    
    102600   309.38768     -15265.746      1566.1821    
    102700   304.51401     -15283.761      1802.7223    
    102800   304.7553      -15306.035      1560.752     
    102900   300.03593     -15325.923      1243.0869    
    103000   294.04848     -15312.607      1585.6466    
    103100   320.25365     -15256.232      1788.7361    
    103200   317.59785     -15237.511      1762.0109    
    103300   302.4586      -15249.419      2198.3093    
    103400   289.52401     -15307.363      1799.4302    
    103500   295.04948     -15309.968      1685.2711    
    103600   308.38201     -15276.455      1811.9297    
    103700   302.26233     -15259.27       1639.7052    
    103800   292.9573      -15264.837      1910.3689    
    103900   294.07021     -15292.801      1940.6095    
    104000   292.44425     -15308.858      1240.2308    
    104100   284.82418     -15293.731      1314.6124    
    104200   294.89921     -15277.45       1920.0584    
    104300   313.88842     -15289.786      1516.9767    
    104400   292.45228     -15355.894      1163.5147    
    104500   289.94272     -15366.715      1255.428     
    104600   294.41278     -15337.515      1395.6872    
    104700   312.40694     -15301.017      1077.9853    
    104800   295.47868     -15294.347      1427.6146    
    104900   294.29609     -15295.74       1424.8551    
    105000   288.31618     -15322.326      1613.3825    
    105100   281.43298     -15330.005      1447.4601    
    105200   290.79145     -15283.807      1580.663     
    105300   302.75746     -15262.584      1731.657     
    105400   302.32697     -15289.708      1066.2871    
    105500   313.12669     -15337.103      1037.1592    
    105600   296.89541     -15344.893      1317.132     
    105700   293.27245     -15330.105      1123.5149    
    105800   297.79609     -15321.561      1559.7956    
    105900   295.98143     -15311.998      1975.1558    
    106000   311.77065     -15301.761      1439.8422    
    106100   304.50057     -15353.681      1043.0483    
    106200   282.51006     -15406.384      1167.3821    
    106300   302.74568     -15364.019      1085.7204    
    106400   302.81293     -15319.325      1363.4782    
    106500   312.99979     -15298.378      1152.3736    
    106600   308.22403     -15306.6        1182.4941    
    106700   300.64146     -15346.166      1310.8247    
    106800   293.98332     -15355.31       1479.4804    
    106900   296.58191     -15333.879      1268.0262    
    107000   317.03379     -15276.919      991.97471    
    107100   301.56279     -15285.28       1424.9839    
    107200   307.65912     -15333.196      674.46216    
    107300   284.09069     -15353.712      1132.9373    
    107400   289.37906     -15339.718      1515.4735    
    107500   298.4209      -15320.78       1461.9647    
    107600   309.52391     -15323.541      875.53091    
    107700   298.23659     -15331.541      1007.0932    
    107800   300.64105     -15337.809      1281.3323    
    107900   287.15449     -15340.713      974.02277    
    108000   317.27069     -15332.476      1097.9916    
    108100   317.8747      -15327.809      983.55905    
    108200   305.97293     -15342.809      940.78671    
    108300   294.49632     -15369.669      689.22876    
    108400   290.0106      -15396.444      634.67417    
    108500   296.12922     -15371.895      962.686      
    108600   300.84669     -15314.361      1442.2592    
    108700   306.79015     -15304.59       1622.8233    
    108800   305.79528     -15339.888      579.4952     
    108900   292.31276     -15361.421      1159.6001    
    109000   303.28436     -15364.029      1035.3075    
    109100   297.53303     -15372.625      1003.4305    
    109200   295.08394     -15382.155      684.76256    
    109300   296.33724     -15355.064      1068.3005    
    109400   307.59715     -15310.731      949.42546    
    109500   313.6466      -15316.659      1192.4754    
    109600   301.83637     -15361.235      855.49171    
    109700   292.57465     -15372.627      878.48138    
    109800   292.48951     -15371.4        502.28015    
    109900   310.40051     -15363.71       935.45279    
    110000   298.15001     -15360.813      1203.0809    
    110100   306.79069     -15338.053      960.11122    
    110200   306.9392      -15330.4        788.39258    
    110300   316.10018     -15357.535      480.59422    
    110400   281.3613      -15398.521      657.98144    
    110500   304.05084     -15394.622      692.58287    
    110600   316.48783     -15357.541      482.94956    
    110700   310.02905     -15307.503      721.91281    
    110800   299.34483     -15319.329      1038.2069    
    110900   306.75314     -15349.871      801.60218    
    111000   300.87774     -15379.302      766.87667    
    111100   300.18021     -15411.92       923.31823    
    111200   292.57961     -15422.269      118.06282    
    111300   289.73299     -15411.885      1016.7361    
    111400   309.29484     -15349.757      979.58929    
    111500   311.39252     -15340.123      552.16219    
    111600   291.32002     -15374.947      1145.3179    
    111700   288.39312     -15408.006      1344.0094    
    111800   300.63364     -15414.069      733.33352    
    111900   301.02988     -15348.498      980.27674    
    112000   310.79836     -15306.448      968.20713    
    112100   308.39076     -15312.076      1266.8357    
    112200   296.91521     -15366.927      922.09587    
    112300   299.62772     -15392.295      987.38532    
    112400   296.55538     -15388.304      1052.0612    
    112500   284.42235     -15364.06       1091.8858    
    112600   310.74503     -15285.548      1296.4527    
    112700   305.99845     -15296.401      1491.6994    
    112800   304.88695     -15341.71       1222.0042    
    112900   293.85772     -15365.634      1162.6334    
    113000   294.54613     -15376.587      787.99913    
    113100   302.32835     -15343.312      816.98028    
    113200   316.75243     -15281.868      1318.2917    
    113300   308.66116     -15289.835      1546.3783    
    113400   297.23538     -15325.273      1301.5401    
    113500   295.9833      -15353.358      1140.1478    
    113600   298.4897      -15369.947      1343.1525    
    113700   309.11212     -15354.713      685.44111    
    113800   306.71373     -15292.109      1021.6152    
    113900   297.23657     -15285.523      1474.4482    
    114000   317.81056     -15316.077      1274.388     
    114100   294.99694     -15356.77       1080.2616    
    114200   306.40861     -15375.395      981.76213    
    114300   303.06497     -15363.697      856.45354    
    114400   304.86862     -15303.673      1179.6087    
    114500   326.76485     -15306.303      1090.0395    
    114600   296.90262     -15346.069      1316.8807    
    114700   304.76361     -15354.772      853.47999    
    114800   291.89657     -15362.654      1431.6823    
    114900   301.04299     -15343.386      1579.3497    
    115000   296.98863     -15310.59       1377.319     
    115100   303.3685      -15287.626      997.25836    
    115200   300.14043     -15270.866      1007.197     
    115300   299.64183     -15325.187      1368.6886    
    115400   303.18755     -15353.34       650.61029    
    115500   301.01981     -15352.153      1049.4478    
    115600   302.42517     -15325.856      1080.4457    
    115700   303.50808     -15282.344      1423.9076    
    115800   312.21819     -15293.488      1229.2413    
    115900   300.51316     -15328.299      1510.7587    
    116000   298.36784     -15341.94       1373.9822    
    116100   281.63623     -15348.32       2096.0011    
    116200   313.71254     -15351.145      909.01142    
    116300   295.42904     -15346.289      1358.7426    
    116400   308.24681     -15284.985      1007.8202    
    116500   296.26534     -15284.108      1531.007     
    116600   307.70971     -15324.549      1174.5561    
    116700   293.26337     -15338.47       1608.2738    
    116800   303.00617     -15331.601      908.27979    
    116900   302.09809     -15305.109      1406.4442    
    117000   306.26611     -15239.653      1527.0068    
    117100   317.29651     -15250.015      1349.6824    
    117200   314.82791     -15287.6        1558.4344    
    117300   314.97865     -15298.483      1101.3896    
    117400   301.36612     -15314.752      1321.8857    
    117500   288.23679     -15323.223      1765.7828    
    117600   298.68603     -15289.922      1901.4866    
    117700   303.99734     -15247.158      1711.4941    
    117800   310.23121     -15206.262      1802.5764    
    117900   322.30679     -15144.394      2279.4713    
    118000   313.37353     -15188.616      2128.7243    
    118100   314.18228     -15235.895      1480.3124    
    118200   307.7861      -15306.438      1755.6661    
    118300   311.01274     -15351.317      1015.4443    
    118400   283.63268     -15344.952      1764.099     
    118500   286.68819     -15294.856      2690.6642    
    118600   303.2286      -15265.881      2209.3367    
    118700   300.45356     -15285.541      1653.8608    
    118800   292.56187     -15355.312      1486.2747    
    118900   290.5866      -15357.723      1342.9968    
    119000   300.64529     -15335.569      1616.7528    
    119100   301.52239     -15299.534      1522.8515    
    119200   313.61177     -15275.297      1181.6322    
    119300   297.77252     -15311.417      1515.9898    
    119400   296.21182     -15360.821      1708.9811    
    119500   286.00252     -15360.443      1696.7411    
    119600   304.3636      -15327.488      1072.9843    
    119700   318.73143     -15298.966      1470.2184    
    119800   291.74852     -15307.504      1889.8898    
    119900   289.51563     -15320.789      2025.6253    
    120000   305.38894     -15324.215      1604.4345    
    120100   289.95631     -15337.005      1796.782     
    120200   306.54514     -15312.747      1509.0474    
    120300   313.25747     -15252.745      1937.1618    
    120400   322.30872     -15266.69       1568.8447    
    120500   308.76818     -15314.224      1960.0196    
    120600   293.91853     -15334.139      1749.8517    
    120700   298.4056      -15319.799      1478.3678    
    120800   305.89046     -15292.135      1784.8171    
    120900   304.70043     -15286.833      1420.5521    
    121000   297.80652     -15283.93       1944.2578    
    121100   292.30193     -15300.556      2103.2931    
    121200   283.95626     -15329.986      2548.6767    
    121300   304.67969     -15342.805      1454.5076    
    121400   305.65143     -15326.042      1327.7202    
    121500   294.07042     -15273.879      2026.2404    
    121600   313.1879      -15257.851      1935.7753    
    121700   291.95336     -15274.186      2331.9884    
    121800   308.09577     -15285.213      1500.8571    
    121900   302.27403     -15284.661      1939.1906    
    122000   291.91573     -15294.518      2285.1114    
    122100   296.25871     -15314.174      2025.4316    
    122200   284.57285     -15382.928      1929.4987    
    122300   295.86408     -15394.09       1642.078     
    122400   299.16        -15354.663      1325.3332    
    122500   304.42926     -15330.804      1580.1535    
    122600   295.07311     -15322.081      1583.5531    
    122700   307.0847      -15326.015      1349.9534    
    122800   299.68281     -15361.014      1358.7874    
    122900   283.27731     -15389.621      1809.6701    
    123000   289.9177      -15353.669      1534.6554    
    123100   299.08875     -15309.403      2114.6725    
    123200   292.90969     -15297.849      1679.9352    
    123300   295.15553     -15296.67       1783.7287    
    123400   320.62725     -15281.052      1971.5762    
    123500   299.34457     -15302.169      2063.4153    
    123600   293.2291      -15348.935      2197.5641    
    123700   288.58394     -15360.866      1695.1653    
    123800   312.79108     -15325.123      1435.2324    
    123900   290.2049      -15267.529      2605.522     
    124000   310.59693     -15274.57       1718.3952    
    124100   300.65022     -15306.134      1149.2209    
    124200   300.86469     -15324.241      1649.0842    
    124300   299.56402     -15333.584      1532.395     
    124400   293.14408     -15367.309      2022.8965    
    124500   285.44        -15390.904      1816.2434    
    124600   300.07851     -15351.948      1716.3461    
    124700   305.16823     -15305.384      1675.3326    
    124800   287.85231     -15303.654      2008.1045    
    124900   310.32463     -15297.76       1683.3208    
    125000   290.43678     -15320.775      1978.9895    
    125100   288.64926     -15348.045      2115.5544    
    125200   288.34668     -15340.511      1555.4032    
    125300   306.03938     -15276.21       2042.9719    
    125400   307.03715     -15273.784      1926.466     
    125500   291.83633     -15304.603      1892.5534    
    125600   295.82929     -15322.502      1450.322     
    125700   289.04998     -15309.977      1800.1898    
    125800   301.87458     -15289.329      1945.646     
    125900   304.04948     -15257.074      1640.3113    
    126000   303.67403     -15207.332      1614.9603    
    126100   310.0323      -15222.106      1650.9184    
    126200   314.71385     -15287.102      1318.6439    
    126300   299.74477     -15307.505      1132.0456    
    126400   306.18878     -15290.65       1539.8021    
    126500   309.27202     -15272.705      1495.524     
    126600   310.07842     -15292.089      849.83649    
    126700   294.12626     -15339.465      965.72612    
    126800   299.26137     -15316.889      1451.4429    
    126900   287.68766     -15280.978      1309.9036    
    127000   304.47306     -15248.225      1174.0594    
    127100   306.04121     -15253.067      1420.616     
    127200   286.65074     -15331.898      1295.7133    
    127300   292.18885     -15337.975      1376.2044    
    127400   302.50711     -15301.195      1625.1092    
    127500   302.89834     -15264.419      1343.8561    
    127600   300.33478     -15233.958      1383.7691    
    127700   322.97477     -15208.371      1483.4869    
    127800   307.70528     -15205.698      1407.6568    
    127900   303.76234     -15260.189      1369.6712    
    128000   285.19564     -15292.859      1602.4728    
    128100   297.97053     -15293.04       1092.2729    
    128200   308.07389     -15272.829      1127.5486    
    128300   317.77157     -15211.124      1357.3204    
    128400   302.75757     -15207.244      1783.9949    
    128500   295.29432     -15255.647      1541.1941    
    128600   302.65913     -15268.026      1134.1951    
    128700   298.89827     -15296.963      1669.963     
    128800   292.93201     -15321.234      1329.4024    
    128900   292.15785     -15300.593      1546.42      
    129000   297.69634     -15243.524      1276.8041    
    129100   313.93835     -15250.487      1463.2416    
    129200   308.55216     -15282.174      1145.8332    
    129300   293.90349     -15317.223      1552.6873    
    129400   287.01064     -15318.19       1374.0834    
    129500   294.04704     -15301.762      1371.4619    
    129600   308.76543     -15304.228      1005.6057    
    129700   298.33603     -15306.293      1059.6659    
    129800   298.79257     -15302          1486.6528    
    129900   307.13265     -15295.323      1072.8941    
    130000   292.38245     -15299.812      1209.9422    
    130100   310.56076     -15272.514      1175.1101    
    130200   308.84306     -15240.632      1630.5071    
    130300   309.37266     -15229.086      1608.3855    
    130400   309.70654     -15287.135      916.84202    
    130500   303.56138     -15322.082      1015.1802    
    130600   296.92674     -15316.54       797.12528    
    130700   303.36535     -15290.827      1023.6941    
    130800   301.9259      -15248.611      1737.1601    
    130900   305.40102     -15246.587      1140.0723    
    131000   307.87222     -15327.279      434.70609    
    131100   294.06754     -15349.855      796.48196    
    131200   301.02456     -15373.741      963.42416    
    131300   297.31584     -15378.15       1051.6086    
    131400   300.94257     -15334.345      1198.6498    
    131500   301.55226     -15301.687      1441.719     
    131600   302.24315     -15319.243      998.04387    
    131700   294.95443     -15333.465      1526.5242    
    131800   310.87056     -15316.936      1248.7012    
    131900   303.29924     -15267.872      1760.1099    
    132000   310.66706     -15274.923      1238.051     
    132100   295.80169     -15334.66       1228.4104    
    132200   299.88725     -15341.214      1227.4044    
    132300   293.0144      -15323.263      1563.6367    
    132400   314.08104     -15297.693      1222.2546    
    132500   307.86122     -15309.176      1132.4997    
    132600   281.05397     -15371.3        1564.1353    
    132700   296.16487     -15372.347      1460.6783    
    132800   301.35285     -15345.4        968.21866    
    132900   301.06252     -15320.796      1650.3067    
    133000   284.8935      -15318.967      1437.5381    
    133100   285.11648     -15324.226      1148.6393    
    133200   302.80403     -15324.503      1243.2704    
    133300   297.85653     -15314.569      834.44525    
    133400   296.02779     -15330.047      1493.2966    
    133500   296.44098     -15377.066      743.48975    
    133600   304.29204     -15371.669      819.93202    
    133700   296.83896     -15343.485      1132.7316    
    133800   301.91356     -15328.366      995.18293    
    133900   303.06863     -15328.629      1047.4386    
    134000   303.79842     -15320.919      1468.5443    
    134100   304.65563     -15317.888      1089.7891    
    134200   309.61572     -15335.154      866.56868    
    134300   312.58089     -15361.369      914.30681    
    134400   305.7863      -15352.209      1196.2811    
    134500   302.14985     -15293.872      1782.7671    
    134600   310.69851     -15271.624      1452.5343    
    134700   310.07385     -15305.653      1061.8275    
    134800   304.18235     -15354.704      835.60042    
    134900   309.3025      -15362.006      1115.9335    
    135000   296.78934     -15346.931      988.42093    
    135100   301.41687     -15304.996      1021.479     
    135200   292.97462     -15278.451      1835.3702    
    135300   297.64507     -15293.556      1613.7748    
    135400   300.40079     -15346.597      814.22573    
    135500   293.92804     -15357.327      980.80197    
    135600   292.11637     -15323.465      1446.0449    
    135700   311.36957     -15295.216      1400.678     
    135800   296.18775     -15293.472      1266.7945    
    135900   300.2917      -15314.542      1116.8649    
    136000   303.17621     -15324.82       866.41466    
    136100   303.41798     -15321.741      879.27017    
    136200   304.91435     -15304.069      1324.1246    
    136300   312.02337     -15252.26       1526.5723    
    136400   307.32327     -15259.622      1558.1048    
    136500   293.89757     -15309.783      1193.1501    
    136600   293.47653     -15328.046      691.62663    
    136700   312.38044     -15326.733      1072.7308    
    136800   304.01007     -15326.827      1007.1691    
    136900   317.20195     -15325.07       1114.0642    
    137000   309.47345     -15336.107      773.79551    
    137100   286.55994     -15362.816      1081.1933    
    137200   301.87091     -15363.382      795.57282    
    137300   280.39568     -15323.184      1568.0578    
    137400   312.50161     -15280.565      1025.1424    
    137500   291.67462     -15290.547      1225.8911    
    137600   309.13335     -15321.441      862.81263    
    137700   294.75078     -15352.487      902.98747    
    137800   288.42643     -15347.224      906.0126     
    137900   308.3191      -15266.646      1265.9312    
    138000   309.57104     -15268.716      1214.4522    
    138100   304.75968     -15308.684      791.70178    
    138200   307.41308     -15352.299      1095.3056    
    138300   301.59376     -15375.302      853.2409     
    138400   288.158       -15365.499      1096.1082    
    138500   316.38281     -15323.984      512.91711    
    138600   315.50203     -15298.882      1249.6587    
    138700   302.34151     -15308.571      1133.6983    
    138800   290.75629     -15321.076      1013.7986    
    138900   301.72913     -15331.475      1072.3346    
    139000   288.34716     -15363.679      1431.7604    
    139100   303.87245     -15395.015      644.41202    
    139200   290.61057     -15410.497      653.6385     
    139300   301.71891     -15348.38       1331.2362    
    139400   313.53632     -15304.356      1031.5045    
    139500   288.65837     -15298.495      1491.0897    
    139600   307.84925     -15326.599      977.28075    
    139700   276.96642     -15380.124      1235.576     
    139800   294.81773     -15384.054      748.28132    
    139900   291.03092     -15363.9        1048.0941    
    140000   307.25664     -15351.453      770.724      
    140100   288.10889     -15331.297      1303.9143    
    140200   298.00244     -15314.138      1510.5787    
    140300   310.16668     -15273.363      1300.1461    
    140400   313.0793      -15259.198      1232.1797    
    140500   302.38364     -15316.212      1037.4055    
    140600   285.88464     -15337.688      860.48651    
    140700   307.06159     -15312.822      853.34871    
    140800   308.33964     -15280.64       988.16054    
    140900   296.58643     -15267.842      1448.9193    
    141000   290.33439     -15330.114      1090.9184    
    141100   280.74591     -15373.545      1409.3811    
    141200   290.69078     -15361.363      1340.0003    
    141300   304.06093     -15311.311      1165.3797    
    141400   308.1908      -15282.917      1500.0516    
    141500   294.0546      -15295.443      1673.7854    
    141600   314.81025     -15316.938      742.68283    
    141700   304.63467     -15331.654      723.00744    
    141800   306.51622     -15331.405      741.96158    
    141900   282.10652     -15329.281      1409.6063    
    142000   312.06018     -15358.015      833.76479    
    142100   305.29733     -15400.01       750.83599    
    142200   298.46942     -15377.238      858.45103    
    142300   302.79287     -15316.64       1058.5682    
    142400   316.19975     -15293.519      859.82253    
    142500   309.34569     -15297.285      1378.6497    
    142600   292.78295     -15343.516      1215.7676    
    142700   293.87365     -15362.534      1026.0236    
    142800   292.44075     -15349.904      1141.9861    
    142900   298.95125     -15328.193      963.37876    
    143000   297.31986     -15292.02       998.64776    
    143100   288.00377     -15267.358      1639.5393    
    143200   310.36759     -15276.31       1331.5747    
    143300   318.23405     -15297.198      1073.3396    
    143400   314.59348     -15321.488      939.9352     
    143500   300.85264     -15352.98       1147.1535    
    143600   294.1183      -15373.788      1023.6867    
    143700   292.33491     -15354.312      1325.4727    
    143800   303.90845     -15291.896      1186.213     
    143900   308.13815     -15272.767      786.37956    
    144000   316.47014     -15291.664      1085.394     
    144100   302.41993     -15347.07       552.06242    
    144200   289.27442     -15367.066      1195.5061    
    144300   299.51986     -15359.101      554.6497     
    144400   300.74042     -15328.477      762.00107    
    144500   302.56724     -15298.994      815.11373    
    144600   308.39597     -15295.417      1165.2544    
    144700   284.28141     -15370.058      1061.4521    
    144800   294.25415     -15377.845      1197.6888    
    144900   308.48958     -15346.512      1227.8982    
    145000   282.75242     -15326.391      883.95497    
    145100   304.89487     -15307.521      1016.4818    
    145200   293.2956      -15310.977      1134.2063    
    145300   293.25412     -15366.562      633.0946     
    145400   292.55914     -15381.413      685.10397    
    145500   302.56908     -15349.82       811.75423    
    145600   303.26952     -15312.861      1452.6709    
    145700   314.64538     -15301.898      1201.5515    
    145800   294.50161     -15319.055      918.95492    
    145900   286.67579     -15327.092      1196.21      
    146000   304.40071     -15316.715      1186.3973    
    146100   302.34253     -15297.337      1245.6236    
    146200   312.16628     -15276.782      809.73873    
    146300   312.78584     -15302.315      576.60328    
    146400   292.06464     -15345.324      1154.3096    
    146500   300.87789     -15356.158      815.21596    
    146600   295.55689     -15333.332      1131.1258    
    146700   313.73324     -15289.97       1065.984     
    146800   304.73361     -15246.553      1870.4268    
    146900   329.96045     -15205.344      1172.4137    
    147000   321.19038     -15268.236      708.8253     
    147100   313.05725     -15295.001      778.53499    
    147200   305.46697     -15314.992      768.99806    
    147300   308.28693     -15344.537      813.06648    
    147400   280.57207     -15362.611      1340.6287    
    147500   290.58209     -15383.014      878.14559    
    147600   292.41259     -15377.323      1163.2238    
    147700   296.87038     -15317.558      1060.6787    
    147800   303.08247     -15303.871      410.12172    
    147900   304.00553     -15322.53       901.80318    
    148000   297.22355     -15356.094      660.88083    
    148100   287.66346     -15387.169      443.67076    
    148200   290.40847     -15389.727      345.50915    
    148300   307.68237     -15326.749      741.69332    
    148400   310.21803     -15293.912      643.9045     
    148500   301.77192     -15292.627      881.94585    
    148600   305.06181     -15334.927      1286.4165    
    148700   280.0868      -15388.487      490.281      
    148800   292.11691     -15392.341      190.43474    
    148900   305.50694     -15371.35       784.60589    
    149000   300.38707     -15342.169      833.85354    
    149100   287.53914     -15330.95       1373.8065    
    149200   295.51449     -15326.578      715.14443    
    149300   288.42387     -15344.665      932.42342    
    149400   292.22924     -15384.812      776.27565    
    149500   286.14325     -15373.754      908.47687    
    149600   298.13894     -15336.266      944.3627     
    149700   305.18463     -15327.417      834.31818    
    149800   301.48411     -15338.157      715.86674    
    149900   304.00293     -15340.523      697.16946    
    150000   295.1718      -15328.729      819.22899    
    150100   301.89839     -15336.438      860.01676    
    150200   294.03673     -15373.044      1356.4696    
    150300   286.51693     -15393.964      817.58814    
    150400   297.75162     -15357.453      651.581      
    150500   302.21892     -15313.831      999.75789    
    150600   292.11758     -15323.381      696.43764    
    150700   292.81189     -15341.89       923.09928    
    150800   300.99952     -15331.976      1023.2678    
    150900   300.94611     -15295.921      940.17449    
    151000   303.17429     -15271.201      938.50232    
    151100   298.47591     -15295.438      787.19106    
    151200   283.43864     -15340.333      1084.738     
    151300   299.76631     -15344.046      930.39448    
    151400   290.44834     -15319.075      1650.4008    
    151500   315.75555     -15268.899      1329.8289    
    151600   310.0127      -15229.304      1530.9887    
    151700   314.74219     -15171.22       1678.729     
    151800   312.80834     -15229.102      1404.8873    
    151900   307.85137     -15283.687      1100.3792    
    152000   294.5393      -15332.602      803.93632    
    152100   296.80374     -15350.091      673.87962    
    152200   298.75949     -15326.274      1082.9799    
    152300   294.94346     -15274.415      1478.379     
    152400   322.86562     -15232.975      932.3775     
    152500   293.71634     -15273.875      1017.2778    
    152600   292.46814     -15308.992      1086.9107    
    152700   285.7211      -15324.847      1030.2344    
    152800   293.68452     -15305.677      956.47182    
    152900   318.85371     -15286.582      1028.4924    
    153000   314.03543     -15301.365      1394.77      
    153100   305.82683     -15348.815      688.41967    
    153200   289.63826     -15349.433      933.2722     
    153300   295.52813     -15316.018      1110.4181    
    153400   291.43183     -15284.425      1380.0141    
    153500   290.88945     -15301.276      1099.833     
    153600   305.38414     -15323.001      1255.8326    
    153700   287.768       -15355.579      982.27849    
    153800   302.40495     -15362.148      640.80752    
    153900   282.83681     -15351.087      950.65681    
    154000   297.84905     -15293.057      1537.2488    
    154100   286.07845     -15285.29       1620.3195    
    154200   306.47681     -15301.245      1032.3095    
    154300   286.43218     -15348.359      1089.1397    
    154400   290.34314     -15378.808      949.7816     
    154500   298.76663     -15360.765      373.81454    
    154600   297.93608     -15282.266      1412.1543    
    154700   307.43152     -15276.899      1423.3867    
    154800   300.03378     -15307.742      1344.1019    
    154900   284.34552     -15338.403      879.9607     
    155000   311.57748     -15343.067      1185.8392    
    155100   309.97626     -15287.992      1152.38      
    155200   296.92281     -15279.195      1122.3721    
    155300   291.35535     -15300.811      940.41034    
    155400   291.75969     -15322.975      1346.5514    
    155500   298.24785     -15318.948      1180.7547    
    155600   298.81676     -15319.871      1370.6954    
    155700   293.96484     -15341.176      1101.6883    
    155800   300.79297     -15345.425      682.54551    
    155900   310.17847     -15291.328      1125.0987    
    156000   308.22452     -15245.339      1620.2106    
    156100   292.66039     -15281.931      1080.5023    
    156200   286.42785     -15328.341      1294.8603    
    156300   298.04731     -15346.397      1310.7689    
    156400   309.16007     -15341.154      979.47769    
    156500   302.94448     -15310.741      1002.7031    
    156600   320.16184     -15274.625      1117.6411    
    156700   296.13557     -15324.093      1032.0622    
    156800   288.66349     -15360.168      1055.831     
    156900   296.75089     -15356.416      1004.2853    
    157000   299.67154     -15320.249      1152.0161    
    157100   300.80041     -15289.208      1158.4105    
    157200   311.62745     -15302.414      895.31177    
    157300   300.53135     -15320.189      934.98967    
    157400   294.52172     -15321.315      1329.4084    
    157500   293.04768     -15350.912      908.39341    
    157600   309.40796     -15363.712      704.1535     
    157700   299.85066     -15366.513      693.21904    
    157800   284.29597     -15346.237      1142.0069    
    157900   305.65762     -15325.744      936.16936    
    158000   298.12945     -15329.33       919.94695    
    158100   298.67067     -15351.927      760.19425    
    158200   276.21236     -15408.945      652.22947    
    158300   302.71003     -15377.311      676.34028    
    158400   299.47357     -15343.711      1178.7679    
    158500   307.24195     -15332.985      678.39874    
    158600   299.8707      -15319.748      883.92643    
    158700   306.26887     -15323.372      1138.6973    
    158800   318.1703      -15370.466      844.91794    
    158900   288.26268     -15392.227      915.59728    
    159000   300.39934     -15369.383      651.5616     
    159100   306.09883     -15317.642      1214.0729    
    159200   310.53485     -15319.9        838.71155    
    159300   288.43303     -15340.739      1261.5304    
    159400   289.42887     -15370.41       1193.3609    
    159500   286.9194      -15412.225      393.95265    
    159600   281.62056     -15438.806      589.66617    
    159700   293.73248     -15372.422      559.83093    
    159800   304.03251     -15338.377      880.40309    
    159900   294.42405     -15329.573      979.24082    
    160000   301.54602     -15322.989      759.11671    
    160100   293.1027      -15314.43       1231.1995    
    160200   312.57612     -15323.301      990.60233    
    160300   290.01517     -15367.948      439.41108    
    160400   298.46242     -15396.172      692.45567    
    160500   288.64618     -15387.603      975.19746    
    160600   311.96699     -15316.115      897.8822     
    160700   300.8001      -15305.412      1282.1812    
    160800   310.78711     -15326.421      1228.5518    
    160900   297.36757     -15375.538      399.16834    
    161000   292.83288     -15404.619      435.20235    
    161100   294.45022     -15382.663      383.79557    
    161200   291.59375     -15334.601      865.05148    
    161300   285.77846     -15319.75       1357.6097    
    161400   304.19044     -15312.96       1027.1164    
    161500   290.29084     -15326.965      1156.2645    
    161600   292.43864     -15352.488      808.81113    
    161700   296.09785     -15374.742      442.37737    
    161800   300.21356     -15385.958      829.51292    
    161900   301.79076     -15339.308      1251.8454    
    162000   298.81941     -15305.075      1263.0419    
    162100   299.27171     -15316.616      1082.7333    
    162200   298.08809     -15341.047      1230.9056    
    162300   291.65686     -15396.36       821.15047    
    162400   304.76207     -15386.049      673.77751    
    162500   294.24465     -15364.479      992.14116    
    162600   287.97178     -15348.99       1306.4916    
    162700   307.98763     -15321.766      862.85479    
    162800   295.46728     -15305.24       1269.0921    
    162900   307.02963     -15349.159      975.21513    
    163000   289.32823     -15400.388      549.64729    
    163100   285.73683     -15377.061      897.04225    
    163200   288.73515     -15334.702      1512.7305    
    163300   306.15848     -15319.254      1048.8522    
    163400   307.39053     -15328.755      968.71647    
    163500   292.48124     -15386.493      1017.6837    
    163600   291.37644     -15407.71       647.2136     
    163700   288.63907     -15381.916      970.24596    
    163800   282.37784     -15342.498      1389.635     
    163900   304.79767     -15319.924      1210.1195    
    164000   302.5541      -15341.722      1192.5175    
    164100   291.10907     -15389.661      1208.8864    
    164200   288.33878     -15411.738      886.90072    
    164300   294.80232     -15376.962      1036.0744    
    164400   313.35471     -15324.942      863.93471    
    164500   304.00865     -15335.987      807.75806    
    164600   301.04491     -15355.537      938.1876     
    164700   291.43326     -15370.77       612.56596    
    164800   296.3633      -15360.505      476.9438     
    164900   298.45429     -15316.36       1161.4185    
    165000   301.25303     -15314.818      939.87986    
    165100   296.24077     -15381.459      522.05507    
    165200   300.90978     -15397.427      790.68168    
    165300   301.06068     -15366.217      421.44206    
    165400   290.39738     -15321.26       1530.5901    
    165500   302.79709     -15306.071      951.48853    
    165600   305.00019     -15326.18       546.7373     
    165700   301.71203     -15352.648      703.1536     
    165800   295.34446     -15351.8        1141.8383    
    165900   303.27185     -15345.626      871.16764    
    166000   305.1323      -15325.219      1230.4581    
    166100   309.23603     -15292.485      1222.894     
    166200   324.49741     -15263.91       946.02713    
    166300   306.4149      -15293.557      980.43426    
    166400   290.72925     -15357.717      943.35504    
    166500   311.62799     -15354.472      619.0967     
    166600   302.4955      -15342.626      1289.4546    
    166700   307.78804     -15348.414      561.94735    
    166800   292.19109     -15355.11       1180.5264    
    166900   288.89632     -15360.369      780.94723    
    167000   293.71838     -15318.49       1180.7948    
    167100   306.15634     -15295.4        1018.2776    
    167200   304.94043     -15295.604      948.51545    
    167300   293.98495     -15340.155      851.51172    
    167400   295.05144     -15365.721      809.01799    
    167500   299.56743     -15356.695      1071.9515    
    167600   289.85381     -15332.689      1571.5026    
    167700   301.45364     -15301.517      1535.5659    
    167800   303.57995     -15287.87       1374.7715    
    167900   303.04596     -15305.15       1309.8655    
    168000   304.75696     -15375.488      456.48987    
    168100   305.23321     -15381.081      467.21686    
    168200   287.57743     -15365.792      1204.6349    
    168300   315.25903     -15319.645      1185.1209    
    168400   309.65759     -15315.108      674.09119    
    168500   292.9257      -15346.884      1250.9866    
    168600   293.37536     -15374.92       861.86083    
    168700   286.32962     -15418.182      1040.1005    
    168800   287.24755     -15392.067      896.10875    
    168900   291.48697     -15342.553      1174.3798    
    169000   299.58561     -15323.395      928.32912    
    169100   318.2469      -15317.001      804.4063     
    169200   299.98465     -15328.559      1259.5088    
    169300   315.23798     -15380.023      651.13197    
    169400   289.08541     -15415.833      500.95216    
    169500   288.73079     -15392.91       723.23383    
    169600   300.1029      -15345.902      903.11542    
    169700   294.18896     -15335.065      1167.365     
    169800   302.77112     -15338.889      944.54       
    169900   292.04502     -15355.226      1262.8703    
    170000   291.00312     -15378.072      831.65664    
    170100   287.15136     -15386.165      842.69681    
    170200   305.46601     -15336.863      1309.8215    
    170300   306.43704     -15314.931      1723.9576    
    170400   293.25397     -15323.525      1080.5594    
    170500   294.50454     -15363.025      1091.0398    
    170600   279.68529     -15402.514      1062.925     
    170700   279.45335     -15371.734      1044.7673    
    170800   301.22884     -15317.385      850.10606    
    170900   299.46392     -15314.55       1238.955     
    171000   301.7874      -15327.689      880.10214    
    171100   303.54009     -15335.652      549.37888    
    171200   310.90605     -15341.579      412.13376    
    171300   276.49226     -15374.998      1089.5449    
    171400   294.29902     -15386.311      791.83668    
    171500   304.7879      -15354.604      384.78928    
    171600   324.78992     -15287.687      1059.3964    
    171700   300.23508     -15296.855      1405.1213    
    171800   292.60364     -15313.521      1431.6067    
    171900   299.36419     -15314.528      813.88319    
    172000   312.13909     -15316.135      1174.3917    
    172100   297.97676     -15360.538      1191.8152    
    172200   287.50878     -15369.569      1420.2418    
    172300   295.21721     -15338.94       1376.5032    
    172400   311.63082     -15295.421      1040.5267    
    172500   308.2512      -15300.188      1532.8479    
    172600   303.14583     -15323.106      1279.659     
    172700   298.51032     -15342.509      1229.3508    
    172800   306.72333     -15333.235      968.48458    
    172900   311.49694     -15284.078      1547.3673    
    173000   300.40919     -15240.7        1697.023     
    173100   315.75625     -15254.649      1720.9692    
    173200   305.81532     -15294.745      1216.9464    
    173300   292.24624     -15325.142      803.5837     
    173400   289.35373     -15314.119      1273.9272    
    173500   301.69009     -15294.998      923.8075     
    173600   319.96605     -15246.62       1066.2492    
    173700   304.01425     -15238.265      1484.3962    
    173800   301.26846     -15292.219      1351.4967    
    173900   304.35946     -15298.964      1040.9479    
    174000   293.45798     -15300.38       1170.7978    
    174100   304.8865      -15283.901      1209.0617    
    174200   293.88927     -15271.997      1394.1463    
    174300   315.66195     -15265.974      1245.7735    
    174400   299.90028     -15276.455      1112.471     
    174500   302.07669     -15326.031      1400.2655    
    174600   300.21951     -15359.846      1164.6679    
    174700   290.89225     -15356.357      1192.2128    
    174800   316.95308     -15307.881      769.57877    
    174900   300.21079     -15281.259      1805.034     
    175000   302.60918     -15290.907      1966.429     
    175100   298.89592     -15307.524      1461.263     
    175200   289.11036     -15327.665      1677.4961    
    175300   299.44622     -15359.825      1397.4381    
    175400   286.18815     -15382.468      1280.9194    
    175500   286.89313     -15355.694      1416.3879    
    175600   308.25011     -15310.145      1614.5375    
    175700   311.78464     -15296.877      1342.9236    
    175800   297.12848     -15325.69       814.11284    
    175900   280.55318     -15364.492      1102.8329    
    176000   292.30076     -15351.275      1031.0561    
    176100   297.2826      -15330.543      1376.5177    
    176200   308.7294      -15306.845      1621.6526    
    176300   296.09661     -15281.431      1835.3378    
    176400   301.01279     -15280.228      1551.2143    
    176500   292.69977     -15354.729      906.67942    
    176600   301.58273     -15365.242      1241.9888    
    176700   304.43128     -15332.494      854.79282    
    176800   301.07707     -15298.037      1121.7728    
    176900   302.21488     -15280.029      1920.742     
    177000   297.52258     -15291.526      1298.6833    
    177100   298.83314     -15364.493      1281.823     
    177200   292.84814     -15366.098      1106.7584    
    177300   306.23095     -15340.29       906.57945    
    177400   296.94757     -15319.544      1263.8028    
    177500   298.5107      -15302.476      1456.3624    
    177600   317.98498     -15244.651      1527.8647    
    177700   320.58909     -15217.04       1535.3853    
    177800   304.13225     -15277.895      1376.8596    
    177900   293.4589      -15299.94       1319.7223    
    178000   296.06254     -15327.341      1336.1812    
    178100   305.2651      -15357.082      1138.5218    
    178200   284.25484     -15387.926      1385.3962    
    178300   302.17314     -15375.766      705.2669     
    178400   284.92495     -15310.493      1296.394     
    178500   308.04881     -15296.54       977.64373    
    178600   300.43568     -15311.564      729.28386    
    178700   308.93821     -15315.146      593.9536     
    178800   298.68048     -15355.831      1128.3526    
    178900   282.84062     -15388.217      1096.9662    
    179000   299.15887     -15346.124      610.51496    
    179100   294.66673     -15317.117      1399.6975    
    179200   308.82925     -15312.258      1200.2548    
    179300   316.70301     -15345.445      1160.0193    
    179400   295.11758     -15376.662      494.25821    
    179500   294.4827      -15381.48       608.24615    
    179600   305.28214     -15345.812      880.8855     
    179700   310.0446      -15304.7        1355.7572    
    179800   303.08281     -15319.264      1259.1034    
    179900   294.13089     -15344.522      912.21811    
    180000   289.08482     -15357.922      1226.0035    
    180100   300.96686     -15302.947      1007.7448    
    180200   323.92047     -15260.345      1192.1037    
    180300   294.57129     -15267.308      1687.4202    
    180400   308.15166     -15318.191      1136.109     
    180500   305.72674     -15350.713      964.76823    
    180600   287.72455     -15342.498      1310.7498    
    180700   308.12702     -15327.9        707.76133    
    180800   299.96948     -15297.927      906.67836    
    180900   330.05725     -15248.921      919.7585     
    181000   302.79037     -15280.644      1398.6428    
    181100   312.02891     -15323.7        1114.5351    
    181200   290.72534     -15344.309      1329.7912    
    181300   304.40137     -15346.995      1279.9625    
    181400   292.35518     -15355.917      1022.5254    
    181500   305.66406     -15342.727      721.67952    
    181600   288.14505     -15319.809      747.99021    
    181700   286.88655     -15284.078      1464.0878    
    181800   318.35467     -15258.007      1209.1539    
    181900   304.85469     -15284.871      1072.948     
    182000   313.46352     -15351.761      487.74877    
    182100   305.65661     -15369.273      758.11019    
    182200   289.10522     -15352.292      1106.2542    
    182300   318.4462      -15292.186      1025.1801    
    182400   299.98791     -15285.101      1457.004     
    182500   298.88513     -15304.888      1346.8565    
    182600   293.29303     -15333.403      630.2895     
    182700   290.40834     -15338.183      990.25109    
    182800   294.59495     -15336.792      992.86582    
    182900   292.12486     -15328.598      1276.5946    
    183000   294.84959     -15311.733      1179.2272    
    183100   307.27433     -15293.52       1191.1153    
    183200   307.07268     -15278.444      1733.8546    
    183300   304.03463     -15299.768      1642.5938    
    183400   301.13513     -15357.17       1353.8979    
    183500   290.4783      -15378.056      1080.4057    
    183600   297.90685     -15350.62       1058.0942    
    183700   288.3674      -15323.25       1703.198     
    183800   297.85117     -15310.715      1783.6421    
    183900   298.39904     -15308.847      1547.4177    
    184000   302.40252     -15313.105      1224.9667    
    184100   297.01731     -15308.173      1174.0616    
    184200   309.23036     -15292.98       1086.2481    
    184300   306.41393     -15291.936      1340.7415    
    184400   308.4914      -15322.96       1581.6213    
    184500   282.294       -15387.848      1178.3203    
    184600   294.14674     -15391.708      1186.2424    
    184700   283.69751     -15363.233      1215.7186    
    184800   307.67955     -15329.115      1198.9106    
    184900   296.74481     -15319.887      1979.3136    
    185000   305.85571     -15345.956      1243.3127    
    185100   274.44919     -15396.918      1242.2591    
    185200   293.90307     -15373.081      1561.2153    
    185300   290.59158     -15348.374      1482.538     
    185400   299.41262     -15325.185      1380.1635    
    185500   299.57473     -15316.44       1223.0148    
    185600   290.21782     -15325.159      1384.0676    
    185700   295.75305     -15351.476      1041.3792    
    185800   283.56975     -15374.707      1593.4635    
    185900   288.92795     -15378.539      1405.4938    
    186000   296.14477     -15328.061      1134.9132    
    186100   300.01559     -15286.064      1405.4614    
    186200   295.29767     -15282.977      2202.5142    
    186300   302.58821     -15310.458      1641.5065    
    186400   286.91857     -15361.303      1029.1155    
    186500   295.25776     -15370.659      1496.135     
    186600   299.27729     -15362.913      1253.885     
    186700   301.67109     -15348.313      1109.0178    
    186800   306.97633     -15321.994      729.90898    
    186900   302.29734     -15309.637      1297.7751    
    187000   308.52313     -15291.48       1270.6406    
    187100   299.64064     -15293.068      1813.3684    
    187200   306.54847     -15346.245      1418.9786    
    187300   296.47615     -15371.052      1061.5365    
    187400   296.91017     -15371.987      1002.8388    
    187500   308.17        -15338.136      1096.5275    
    187600   301.96404     -15276.423      1337.0555    
    187700   322.81603     -15286.205      1234.5053    
    187800   305.94467     -15330.275      1101.6496    
    187900   304.443       -15345.189      895.2362     
    188000   302.31904     -15343.852      625.22836    
    188100   300.7764      -15343.895      1056.6438    
    188200   298.54482     -15332.405      1222.4907    
    188300   314.53494     -15292.13       1431.8436    
    188400   327.0254      -15271.42       1223.6946    
    188500   292.55292     -15325.623      1734.2628    
    188600   293.57944     -15343.766      1219.7995    
    188700   300.50923     -15323.634      1527.0675    
    188800   305.32385     -15318.21       1210.7684    
    188900   318.43657     -15312.017      1133.5865    
    189000   312.6927      -15333.981      1495.4841    
    189100   288.86266     -15372.254      1606.4463    
    189200   294.6378      -15393.291      1350.1418    
    189300   291.03814     -15411.762      1523.7137    
    189400   298.60496     -15364.287      1102.2785    
    189500   297.57891     -15309.775      1726.2237    
    189600   300.10156     -15299.527      1836.7361    
    189700   297.7014      -15326.829      1277.7697    
    189800   300.71598     -15355.068      1342.0663    
    189900   292.48936     -15397.993      931.73478    
    190000   289.35352     -15404.496      940.93667    
    190100   311.48478     -15339.525      1384.5792    
    190200   296.25527     -15325.963      1519.8999    
    190300   299.71601     -15333.465      1609.1937    
    190400   290.51743     -15360.95       1272.0646    
    190500   280.69651     -15395.27       1417.8795    
    190600   295.90758     -15391.296      1004.2951    
    190700   286.81016     -15328.109      1596.9739    
    190800   311.60732     -15289.615      991.56834    
    190900   305.87614     -15282.817      1606.884     
    191000   318.55857     -15319.225      1067.0433    
    191100   282.44549     -15351.048      1098.2741    
    191200   289.33882     -15331.881      1234.4327    
    191300   300.43894     -15308.232      1333.3354    
    191400   304.18622     -15319.169      1317.1761    
    191500   289.40213     -15372.322      1095.2953    
    191600   279.96286     -15386.88       1195.7516    
    191700   299.68328     -15363.484      816.74871    
    191800   292.14799     -15345.014      1513.9317    
    191900   303.83366     -15337.264      1229.8019    
    192000   303.0116      -15339.159      1131.7265    
    192100   309.849       -15351.036      608.8899     
    192200   290.59599     -15389.778      744.19359    
    192300   289.49817     -15387.849      1090.8915    
    192400   290.38207     -15331.763      1385.6764    
    192500   295.42648     -15310.442      1304.272     
    192600   302.98473     -15291.181      696.66198    
    192700   299.0479      -15290.379      1334.1696    
    192800   289.18373     -15318.427      1601.5152    
    192900   289.53571     -15358.112      1133.9203    
    193000   290.89326     -15351.908      751.63285    
    193100   300.41453     -15305.587      1147.4023    
    193200   319.57649     -15297.895      1165.3114    
    193300   308.45734     -15310.513      1172.7879    
    193400   300.87173     -15335.493      1599.4821    
    193500   292.94331     -15364.525      1155.3775    
    193600   297.09055     -15380.876      728.39788    
    193700   288.11187     -15412.789      869.95659    
    193800   283.94        -15386.045      1366.9752    
    193900   304.2507      -15337.729      734.91568    
    194000   302.57719     -15303.647      1524.2301    
    194100   310.48071     -15298.399      1464.2218    
    194200   301.12395     -15325.134      1223.0056    
    194300   278.31363     -15360.241      1481.7095    
    194400   286.5314      -15351.434      1389.5694    
    194500   302.48034     -15284.217      1704.4911    
    194600   309.03677     -15265.661      1366.8689    
    194700   298.10436     -15277.84       1829.8664    
    194800   298.7543      -15323.803      1589.6544    
    194900   293.49843     -15342.402      1562.8781    
    195000   293.10463     -15333.447      1492.8365    
    195100   307.82753     -15319.81       1125.049     
    195200   297.43882     -15281.694      2115.3352    
    195300   297.50883     -15245.414      1718.8766    
    195400   296.99086     -15256.561      1603.9761    
    195500   298.26435     -15298.792      1344.9134    
    195600   299.03507     -15317.875      1374.5079    
    195700   300.78028     -15318.338      1807.5394    
    195800   298.43832     -15310.963      1321.415     
    195900   297.15003     -15308.239      1583.5402    
    196000   302.5106      -15303.467      989.52929    
    196100   301.73054     -15279.249      1165.8169    
    196200   306.09959     -15263.647      1100.2531    
    196300   290.38415     -15261.757      2124.4634    
    196400   303.31926     -15297.938      1100.1569    
    196500   313.19948     -15337.943      894.01647    
    196600   270.37548     -15345.924      1747.5627    
    196700   302.28665     -15301.231      1586.1907    
    196800   305.8347      -15272.959      936.65485    
    196900   305.03664     -15267.415      1432.9805    
    197000   296.78477     -15286.546      1463.6001    
    197100   308.89881     -15323.139      764.84424    
    197200   298.17549     -15335.961      919.43625    
    197300   311.64809     -15264.39       1464.0833    
    197400   306.62595     -15239.761      1259.5385    
    197500   307.9156      -15250.283      1098.8308    
    197600   312.50444     -15307.094      975.2307     
    197700   294.92455     -15328.89       1475.2299    
    197800   302.03066     -15313.458      970.6603     
    197900   309.81207     -15271.531      1242.1653    
    198000   304.34595     -15259.062      1404.1229    
    198100   310.99591     -15254.176      1416.2371    
    198200   302.16882     -15256.981      1470.449     
    198300   319.65598     -15268.167      775.34522    
    198400   297.42938     -15303.514      1525.0607    
    198500   286.04307     -15332.545      1324.3301    
    198600   294.90103     -15324.729      955.47717    
    198700   311.12477     -15310.862      855.76549    
    198800   289.1469      -15284.958      1579.841     
    198900   305.42315     -15231.835      1884.4221    
    199000   314.40776     -15188.536      1451.6999    
    199100   318.27054     -15218.351      1286.5113    
    199200   300.86474     -15289.644      994.82573    
    199300   300.63852     -15327.215      836.38685    
    199400   303.67666     -15337.727      982.60816    
    199500   304.7544      -15322.063      763.21313    
    199600   302.23401     -15293.368      1031.0655    
    199700   321.00942     -15258.99       855.45076    
    199800   292.20189     -15273.34       1183.4661    
    199900   302.50225     -15299.569      781.98213    
    200000   301.24432     -15314.753      970.82393    
    200100   314.10539     -15302.648      1107.6457    
    200200   301.67128     -15296.345      1390.5386    
    200300   314.07015     -15276.211      1097.7227    
    200400   316.84391     -15268.169      1356.4652    
    200500   303.61643     -15292.098      873.91316    
    200600   299.1205      -15329.856      970.21292    
    200700   302.3055      -15325.768      528.33582    
    200800   316.06375     -15261.968      1103.9531    
    200900   307.8782      -15246.985      1454.8937    
    201000   300.93086     -15270.75       1285.3306    
    201100   299.89007     -15296.489      965.47001    
    201200   305.46416     -15312.358      1141.0094    
    201300   296.25144     -15307.75       1321.4767    
    201400   313.81037     -15259.207      1135.8895    
    201500   333.76833     -15217.953      559.00718    
    201600   291.15807     -15252.069      1144.7292    
    201700   307.08231     -15286.848      1189.4346    
    201800   299.12403     -15315.358      1217.3911    
    201900   296.51259     -15321.511      1086.2892    
    202000   304.2108      -15290.274      1078.8713    
    202100   317.04173     -15248.37       951.64408    
    202200   313.06875     -15249.529      1305.9162    
    202300   308.65119     -15270.916      1274.4143    
    202400   294.34939     -15276.535      1491.1965    
    202500   310.69711     -15277.518      1387.1464    
    202600   293.74818     -15274.379      1325.4553    
    202700   306.55978     -15259.353      1502.2906    
    202800   308.79314     -15251.438      1412.9337    
    202900   304.64196     -15291.956      908.71291    
    203000   285.32655     -15331.442      961.54382    
    203100   299.47233     -15312.237      1633.6682    
    203200   297.83809     -15279.942      1167.3047    
    203300   294.84512     -15266.726      1524.9846    
    203400   304.38476     -15276.744      1290.0286    
    203500   302.22591     -15298.953      1038.4317    
    203600   295.4649      -15318.23       1224.4411    
    203700   307.06204     -15318.348      754.66226    
    203800   304.19183     -15298.47       971.40837    
    203900   307.45647     -15271.541      1705.0261    
    204000   300.15104     -15266.472      1196.7476    
    204100   292.55823     -15321.902      831.61959    
    204200   293.02302     -15347.87       509.5896     
    204300   309.4895      -15337.094      609.57156    
    204400   298.70479     -15318.805      796.28852    
    204500   303.32236     -15297.466      541.25743    
    204600   313.25262     -15233.643      541.31641    
    204700   319.19441     -15202.67       1720.337     
    204800   312.66842     -15242.822      611.82563    
    204900   290.01106     -15271.799      958.90996    
    205000   304.90949    